     Program PWSCF v.6.4.1 starts on  4Jun2021 at 15:11:44

     K-points division:     npool     =       4
     R & G space division:  proc/nbgrp/npool/nimage =      40
     Waiting for input...
     Reading input from standard input

     Current dimensions of program PWSCF are:
     Max number of different atomic species (ntypx) = 10
     Max number of k-points (npk) =  40000
     Max angular momentum in pseudopotentials (lmaxx) =  3
     Presently no symmetry can be used with electric field

     bravais-lattice index     =            0
     lattice parameter (alat)  =       7.4785  a.u.
     unit-cell volume          =    2333.3700 (a.u.)^3
     number of atoms/cell      =           17
     number of atomic types    =            3
     number of electrons       =       136.00
     number of Kohn-Sham states=           82
     kinetic-energy cutoff     =      80.0000  Ry
     charge density cutoff     =     400.0000  Ry
     convergence threshold     =      1.0E-09
     mixing beta               =       0.3000
     number of iterations used =            8  plain     mixing
     Exchange-correlation      = PBESOL ( 1  4 10  8 0 0)
     nstep                     =           50

     celldm(1)=   7.478466  celldm(2)=   0.000000  celldm(3)=   0.000000
     celldm(4)=   0.000000  celldm(5)=   0.000000  celldm(6)=   0.000000

     crystal axes: (cart. coord. in units of alat)
               a(1) = (   1.000000   0.000000   0.000000 )
               a(2) = (   0.000000   1.000000   0.000000 )
               a(3) = (   0.000000   0.000000   5.578868 )

     reciprocal axes: (cart. coord. in units 2 pi/alat)
               b(1) = (  1.000000 -0.000000  0.000000 )
               b(2) = ( -0.000000  1.000000  0.000000 )
               b(3) = (  0.000000  0.000000  0.179248 )

     PseudoPot. # 1 for Ba read from file:
     ./pseudo/Ba.pbesol-nc-sr.upf
     MD5 check sum: 716a24e91cb490012dd496b6aa92d00e
     Pseudo is Norm-conserving + core correction, Zval = 10.0
     Generated using ONCVPSP code by D. R. Hamann
     Using radial grid of 1936 points,  6 beta functions with:
                l(1) =   0
                l(2) =   0
                l(3) =   1
                l(4) =   1
                l(5) =   2
                l(6) =   2

     PseudoPot. # 2 for Ti read from file:
     ./pseudo/Ti.pbesol-nc-sr.upf
     MD5 check sum: c7cef475492d2ee3d0561e3a3e59fcd4
     Pseudo is Norm-conserving + core correction, Zval = 12.0
     Generated using ONCVPSP code by D. R. Hamann
     Using radial grid of 1586 points,  6 beta functions with:
                l(1) =   0
                l(2) =   0
                l(3) =   1
                l(4) =   1
                l(5) =   2
                l(6) =   2

     PseudoPot. # 3 for O  read from file:
     ./pseudo/O.pbesol-nc-sr.upf
     MD5 check sum: f226cbcd508cec715ff87a8f75a1dfba
     Pseudo is Norm-conserving + core correction, Zval =  6.0
     Generated using ONCVPSP code by D. R. Hamann
     Using radial grid of  936 points,  5 beta functions with:
                l(1) =   0
                l(2) =   0
                l(3) =   1
                l(4) =   1
                l(5) =   2

     atomic species   valence    mass     pseudopotential
        Ba            10.00   137.32700     Ba( 1.00)
        Ti            12.00    47.86700     Ti( 1.00)
        O              6.00    15.99940     O ( 1.00)

     No symmetry found

   Cartesian axes

     site n.     atom                  positions (alat units)
         1           Ba  tau(   1) = (   0.0000000   0.0000000   1.3171450  )
         2           O   tau(   2) = (   0.5000000   0.5000000   1.2883749  )
         3           Ti  tau(   3) = (   0.5000000   0.5000000   1.7854157  )
         4           O   tau(   4) = (   0.5000000  -0.0000000   1.7811290  )
         5           O   tau(   5) = (   0.0000000   0.5000000   1.7811290  )
         6           Ba  tau(   6) = (  -0.0000000   0.0000000   2.3023822  )
         7           O   tau(   7) = (   0.5000000   0.5000000   2.2855816  )
         8           Ti  tau(   8) = (   0.5000000   0.5000003   2.8089837  )
         9           O   tau(   9) = (   0.5000000  -0.0000002   2.7963590  )
        10           O   tau(  10) = (   0.0000000   0.4999999   2.7963590  )
        11           Ba  tau(  11) = (  -0.0000000   0.0000001   3.3043529  )
        12           O   tau(  12) = (   0.5000000   0.5000000   3.2940415  )
        13           Ti  tau(  13) = (   0.5000000   0.5000000   3.8329995  )
        14           O   tau(  14) = (   0.5000000  -0.0000000   3.8181436  )
        15           O   tau(  15) = (  -0.0000000   0.5000000   3.8181436  )
        16           Ba  tau(  16) = (   0.0000000   0.0000000   4.3107382  )
        17           O   tau(  17) = (   0.5000000   0.5000000   4.3006383  )

     number of k points=    34  gaussian smearing, width (Ry)=  0.0050
                       cart. coord. in units 2pi/alat
        k(    1) = (   0.0000000   0.0000000   0.0000000), wk =   0.0312500
        k(    2) = (  -0.0000000   0.1250000   0.0000000), wk =   0.0625000
        k(    3) = (  -0.0000000   0.2500000   0.0000000), wk =   0.0625000
        k(    4) = (  -0.0000000   0.3750000   0.0000000), wk =   0.0625000
        k(    5) = (   0.0000000  -0.5000000   0.0000000), wk =   0.0312500
        k(    6) = (   0.1250000  -0.0000000   0.0000000), wk =   0.0625000
        k(    7) = (   0.1250000   0.1250000   0.0000000), wk =   0.0625000
        k(    8) = (   0.1250000   0.2500000   0.0000000), wk =   0.0625000
        k(    9) = (   0.1250000   0.3750000   0.0000000), wk =   0.0625000
        k(   10) = (   0.1250000  -0.5000000   0.0000000), wk =   0.0625000
        k(   11) = (   0.1250000  -0.3750000   0.0000000), wk =   0.0625000
        k(   12) = (   0.1250000  -0.2500000   0.0000000), wk =   0.0625000
        k(   13) = (   0.1250000  -0.1250000   0.0000000), wk =   0.0625000
        k(   14) = (   0.2500000  -0.0000000   0.0000000), wk =   0.0625000
        k(   15) = (   0.2500000   0.1250000   0.0000000), wk =   0.0625000
        k(   16) = (   0.2500000   0.2500000   0.0000000), wk =   0.0625000
        k(   17) = (   0.2500000   0.3750000   0.0000000), wk =   0.0625000
        k(   18) = (   0.2500000  -0.5000000   0.0000000), wk =   0.0625000
        k(   19) = (   0.2500000  -0.3750000   0.0000000), wk =   0.0625000
        k(   20) = (   0.2500000  -0.2500000   0.0000000), wk =   0.0625000
        k(   21) = (   0.2500000  -0.1250000   0.0000000), wk =   0.0625000
        k(   22) = (   0.3750000  -0.0000000   0.0000000), wk =   0.0625000
        k(   23) = (   0.3750000   0.1250000   0.0000000), wk =   0.0625000
        k(   24) = (   0.3750000   0.2500000   0.0000000), wk =   0.0625000
        k(   25) = (   0.3750000   0.3750000   0.0000000), wk =   0.0625000
        k(   26) = (   0.3750000  -0.5000000   0.0000000), wk =   0.0625000
        k(   27) = (   0.3750000  -0.3750000   0.0000000), wk =   0.0625000
        k(   28) = (   0.3750000  -0.2500000   0.0000000), wk =   0.0625000
        k(   29) = (   0.3750000  -0.1250000   0.0000000), wk =   0.0625000
        k(   30) = (  -0.5000000   0.0000000   0.0000000), wk =   0.0312500
        k(   31) = (  -0.5000000   0.1250000   0.0000000), wk =   0.0625000
        k(   32) = (  -0.5000000   0.2500000   0.0000000), wk =   0.0625000
        k(   33) = (  -0.5000000   0.3750000   0.0000000), wk =   0.0625000
        k(   34) = (  -0.5000000  -0.5000000   0.0000000), wk =   0.0312500

     Initial potential from superposition of free atoms

     starting charge  135.93448, renormalised to  136.00000

     negative rho (up, down):  6.995E-06 0.000E+00

     Adding external electric field

     Computed dipole along edir(3) :
        Dipole                0.0148 Ry au,          0.0375 Debye
        Dipole field          0.0001 Ry au,

        E field amplitude [Ha a.u.]:  3.5000E-02
        Potential amp.        2.8774 Ry
        Total length         41.1999 bohr

     Starting wfcs are   90 randomized atomic wfcs

     Self-consistent Calculation

     iteration #  1     ecut=    80.00 Ry     beta= 0.30
     Davidson diagonalization with overlap
     ethr =  1.00E-02,  avg # of iterations =  8.1

[...]

     total energy              =     268.42582008 Ry
     Harris-Foulkes estimate   =    -809.95655090 Ry
     estimated scf accuracy    <    2348.46636451 Ry

     iteration #  2     ecut=    80.00 Ry     beta= 0.30
     Davidson diagonalization with overlap
     c_bands:  5 eigenvalues not converged
     c_bands:  1 eigenvalues not converged
     c_bands:  5 eigenvalues not converged
     c_bands:  3 eigenvalues not converged
     ethr =  1.00E-02,  avg # of iterations = 20.6

[...]

     End of self-consistent calculation

          k = 0.0000 0.0000 0.0000 ( 28203 PWs)   bands (ev):

   -50.4983 -50.4553 -50.3826 -26.9090 -26.9090 -26.8532 -26.8333 -26.8333
   -26.8302 -26.7826 -26.7819 -26.7819 -20.0688 -20.0069 -19.0526 -18.9757
   -11.6108 -11.4588 -11.2394 -10.7624 -10.5997 -10.4880 -10.3147 -10.1366
    -9.9193  -9.7292  -5.1715  -5.1585  -5.0350  -5.0350  -4.9756  -4.9756
    -4.1795  -4.1795  -4.1772  -4.0779  -4.0779  -3.9251   2.0784   2.7440
     2.7440   2.8037   2.9269   2.9269   3.2259   3.2259   3.4348   3.5588
     3.5645   3.7680   3.9515   3.9973   3.9973   4.1570   4.1570   4.1735
     4.3029   4.3029   4.4064   4.4064   4.4635   4.9782   4.9782   5.1517
     5.1517   5.1873   5.4742   5.4742   5.5830   7.4115   7.5423   7.6192
     8.0076   8.0076   8.6195   8.6195   8.8563   9.1378   9.1378   9.8340
     9.8721   9.9629

          k =-0.0000 0.1250 0.0000 ( 28213 PWs)   bands (ev):

[...]

     the Fermi energy is     5.5986 ev

!    total energy              =    -912.66579109 Ry
     Harris-Foulkes estimate   =    -912.66578902 Ry
     estimated scf accuracy    <          4.2E-10 Ry

     The total energy is the sum of the following terms:

     one-electron contribution =   -4595.53379746 Ry
     hartree contribution      =    2355.51584006 Ry
     xc contribution           =    -188.13923299 Ry
     ewald contribution        =    1515.69903470 Ry
     electric field correction =      -0.20743300 Ry
     smearing contrib. (-TS)   =      -0.00020241 Ry

     convergence has been achieved in  45 iterations

     Forces acting on atoms (cartesian axes, Ry/au):

     atom    1 type  1   force =    -0.00000000    0.00000001   -0.00281213
     atom    2 type  3   force =    -0.00000002    0.00000000    0.00201096
     atom    3 type  2   force =    -0.00000002    0.00000000   -0.00241562
     atom    4 type  3   force =    -0.00000001   -0.00000002    0.00022505
     atom    5 type  3   force =     0.00000003    0.00000002    0.00022511
     atom    6 type  1   force =    -0.00000001    0.00000002   -0.00064827
     atom    7 type  3   force =    -0.00000001   -0.00000005   -0.00059713
     atom    8 type  2   force =    -0.00000001    0.00000006    0.00484895
     atom    9 type  3   force =     0.00000003   -0.00000008   -0.00149254
     atom   10 type  3   force =     0.00000004   -0.00000003   -0.00149256
[...]
   0.000000005   3.957829654   0.000000000
   0.000000000   0.000000000  22.078000000

ATOMIC_POSITIONS (crystal)
Ba       0.000000001   0.000000005   0.236027984
O        0.500000003   0.499999990   0.230986610
Ti       0.499999996   0.500000022   0.319973994
O        0.499999998  -0.000000018   0.319268899
O        0.000000007   0.499999993   0.319268899
Ba      -0.000000006   0.000000042   0.412681486
O        0.500000005   0.499999959   0.409671226
Ti       0.499999962   0.500000297   0.503620461
O        0.500000017  -0.000000198   0.501205511
O        0.000000032   0.499999900   0.501205515
Ba      -0.000000008   0.000000055   0.592400507
O        0.500000002   0.499999963   0.590290527
Ti       0.500000000   0.500000031   0.687293684
O        0.499999999  -0.000000022   0.684323035
O       -0.000000002   0.499999990   0.684323035
Ba      -0.000000001   0.000000009   0.772863169
O        0.500000001   0.499999985   0.770720739

     Writing output data file BaTiO3_7_Ba-O_P4mm.save/
     NEW-OLD atomic charge density approx. for the potential

[...]

     extrapolated charge  136.02720, renormalised to  136.00000

[...]

     enthalpy old            =    -912.6657910896 Ry
     enthalpy new            =    -912.6660161465 Ry

     CASE: enthalpy_new < enthalpy_old

[...]

     CASE: enthalpy_new < enthalpy_old

[...]

     CASE: enthalpy_new > enthalpy_old

[...]

     Threshold (ethr) on eigenvalues was too large:
     Diagonalizing with lowered threshold

     Davidson diagonalization with overlap
     ethr =  1.07E-08,  avg # of iterations =  1.0

[...]

     new trust radius        =       0.0000109937 bohr
     new conv_thr            =            1.0E-11 Ry

[...]

     Threshold (ethr) on eigenvalues was too large:
     Diagonalizing with lowered threshold

     Davidson diagonalization with overlap
     ethr =  8.51E-10,  avg # of iterations =  1.0

[...]

     number of scf cycles    =  11
     number of bfgs steps    =   5

     enthalpy old            =    -912.6661100201 Ry
     enthalpy new            =    -912.6661099953 Ry

     CASE: enthalpy_new > enthalpy_old

     new trust radius        =       0.0000030564 bohr

     trust_radius < trust_radius_min

     resetting bfgs history

     new conv_thr            =            1.0E-11 Ry

     new unit-cell volume =   2333.20656 a.u.^3 (   345.74554 Ang^3 )
     density =      4.09630 g/cm^3

[...]

ATOMIC_POSITIONS (crystal)
Ba       0.000000000   0.000000006   0.235736940
O        0.500000003   0.499999985   0.231038052
Ti       0.499999995   0.500000028   0.319904445
O        0.500000002  -0.000000020   0.319169745
O        0.000000005   0.499999990   0.319169743
Ba      -0.000000007   0.000000051   0.412510435
O        0.500000008   0.499999947   0.409568193
Ti       0.499999949   0.500000370   0.503572904
O        0.500000020  -0.000000244   0.501157823
O        0.000000033   0.499999869   0.501157834
Ba      -0.000000010   0.000000072   0.592576760
O        0.500000009   0.499999946   0.590178964
Ti       0.499999997   0.500000039   0.687299866
O        0.499999997  -0.000000020   0.684340084
O        0.000000002   0.499999991   0.684340083
Ba      -0.000000001   0.000000012   0.773556429
O        0.500000001   0.499999981   0.770846978

     Writing output data file BaTiO3_7_Ba-O_P4mm.save/
     NEW-OLD atomic charge density approx. for the potential

[...]

     extrapolated charge  135.97231, renormalised to  136.00000

[...]

     Total force =     0.002249     Total SCF correction =     0.000008

[...]

     bfgs converged in  12 scf cycles and   5 bfgs steps
     (criteria: energy <  1.0E-04 Ry, force <  1.0E-03Ry/Bohr, cell <  5.0E-01kbar)

     End of BFGS Geometry Optimization

     Final enthalpy =    -912.6660968801 Ry
Begin final coordinates
     new unit-cell volume =   2333.20656 a.u.^3 (   345.74554 Ang^3 )
     density =      4.09630 g/cm^3

CELL_PARAMETERS (angstrom)
   3.957294968   0.000000000   0.000000000
   0.000000000   3.957295040   0.000000000
   0.000000000   0.000000000  22.078000000

ATOMIC_POSITIONS (crystal)
Ba       0.000000000   0.000000006   0.235736940
O        0.500000003   0.499999985   0.231038052
Ti       0.499999995   0.500000028   0.319904445
O        0.500000002  -0.000000020   0.319169745
O        0.000000005   0.499999990   0.319169743
Ba      -0.000000007   0.000000051   0.412510435
O        0.500000008   0.499999947   0.409568193
Ti       0.499999949   0.500000370   0.503572904
O        0.500000020  -0.000000244   0.501157823
O        0.000000033   0.499999869   0.501157834
Ba      -0.000000010   0.000000072   0.592576760
O        0.500000009   0.499999946   0.590178964
Ti       0.499999997   0.500000039   0.687299866
O        0.499999997  -0.000000020   0.684340084
O        0.000000002   0.499999991   0.684340083
Ba      -0.000000001   0.000000012   0.773556429
O        0.500000001   0.499999981   0.770846978
End final coordinates

     Writing output data file BaTiO3_7_Ba-O_P4mm.save/

     A final scf calculation at the relaxed structure.
     The G-vectors are recalculated for the final unit cell
     Results may differ from those at the preceding step.

     bravais-lattice index     =            0
     lattice parameter (alat)  =       7.4785  a.u.
     unit-cell volume          =    2333.2066 (a.u.)^3
     number of atoms/cell      =           17
     number of atomic types    =            3
     number of electrons       =       136.00
     number of Kohn-Sham states=           82
     kinetic-energy cutoff     =      80.0000  Ry
     charge density cutoff     =     400.0000  Ry
     convergence threshold     =      1.0E-11
     mixing beta               =       0.3000
     number of iterations used =            8  plain     mixing
     Exchange-correlation      = PBESOL ( 1  4 10  8 0 0)

     celldm(1)=   7.478466  celldm(2)=   0.000000  celldm(3)=   0.000000
     celldm(4)=   0.000000  celldm(5)=   0.000000  celldm(6)=   0.000000

     crystal axes: (cart. coord. in units of alat)
               a(1) = (   0.999965   0.000000   0.000000 )
               a(2) = (   0.000000   0.999965   0.000000 )
               a(3) = (   0.000000   0.000000   5.578868 )

     reciprocal axes: (cart. coord. in units 2 pi/alat)
               b(1) = (  1.000035 -0.000000  0.000000 )
               b(2) = ( -0.000000  1.000035  0.000000 )
               b(3) = (  0.000000  0.000000  0.179248 )

     PseudoPot. # 1 for Ba read from file:
     ./pseudo/Ba.pbesol-nc-sr.upf
     MD5 check sum: 716a24e91cb490012dd496b6aa92d00e
     Pseudo is Norm-conserving + core correction, Zval = 10.0
     Generated using ONCVPSP code by D. R. Hamann
     Using radial grid of 1936 points,  6 beta functions with:
                l(1) =   0
                l(2) =   0
                l(3) =   1
                l(4) =   1
                l(5) =   2
                l(6) =   2

     PseudoPot. # 2 for Ti read from file:
     ./pseudo/Ti.pbesol-nc-sr.upf
     MD5 check sum: c7cef475492d2ee3d0561e3a3e59fcd4
     Pseudo is Norm-conserving + core correction, Zval = 12.0
     Generated using ONCVPSP code by D. R. Hamann
     Using radial grid of 1586 points,  6 beta functions with:
                l(1) =   0
                l(2) =   0
                l(3) =   1
                l(4) =   1
                l(5) =   2
                l(6) =   2

     PseudoPot. # 3 for O  read from file:
     ./pseudo/O.pbesol-nc-sr.upf
     MD5 check sum: f226cbcd508cec715ff87a8f75a1dfba
     Pseudo is Norm-conserving + core correction, Zval =  6.0
     Generated using ONCVPSP code by D. R. Hamann
     Using radial grid of  936 points,  5 beta functions with:
                l(1) =   0
                l(2) =   0
                l(3) =   1
                l(4) =   1
                l(5) =   2

     atomic species   valence    mass     pseudopotential
        Ba            10.00   137.32700     Ba( 1.00)
        Ti            12.00    47.86700     Ti( 1.00)
        O              6.00    15.99940     O ( 1.00)

     No symmetry found

   Cartesian axes

     site n.     atom                  positions (alat units)
         1           Ba  tau(   1) = (   0.0000000   0.0000000   1.3151453  )
         2           O   tau(   2) = (   0.4999825   0.4999825   1.2889308  )
         3           Ti  tau(   3) = (   0.4999825   0.4999825   1.7847047  )
         4           O   tau(   4) = (   0.4999825  -0.0000000   1.7806059  )
         5           O   tau(   5) = (   0.0000000   0.4999825   1.7806059  )
         6           Ba  tau(   6) = (  -0.0000000   0.0000001   2.3013413  )
         7           O   tau(   7) = (   0.4999825   0.4999824   2.2849269  )
         8           Ti  tau(   8) = (   0.4999824   0.4999829   2.8093668  )
         9           O   tau(   9) = (   0.4999825  -0.0000002   2.7958934  )
        10           O   tau(  10) = (   0.0000000   0.4999824   2.7958934  )
        11           Ba  tau(  11) = (  -0.0000000   0.0000001   3.3059076  )
        12           O   tau(  12) = (   0.4999825   0.4999824   3.2925306  )
        13           Ti  tau(  13) = (   0.4999825   0.4999825   3.8343553  )
        14           O   tau(  14) = (   0.4999825  -0.0000000   3.8178430  )
        15           O   tau(  15) = (   0.0000000   0.4999825   3.8178430  )
        16           Ba  tau(  16) = (  -0.0000000   0.0000000   4.3155693  )
        17           O   tau(  17) = (   0.4999825   0.4999825   4.3004536  )

     number of k points=    34  gaussian smearing, width (Ry)=  0.0050
                       cart. coord. in units 2pi/alat
        k(    1) = (   0.0000000   0.0000000   0.0000000), wk =   0.0312500
        k(    2) = (  -0.0000000   0.1250044   0.0000000), wk =   0.0625000
        k(    3) = (  -0.0000000   0.2500088   0.0000000), wk =   0.0625000
        k(    4) = (  -0.0000000   0.3750131   0.0000000), wk =   0.0625000
        k(    5) = (   0.0000000  -0.5000175   0.0000000), wk =   0.0312500
        k(    6) = (   0.1250044  -0.0000000   0.0000000), wk =   0.0625000
        k(    7) = (   0.1250044   0.1250044   0.0000000), wk =   0.0625000
        k(    8) = (   0.1250044   0.2500088   0.0000000), wk =   0.0625000
        k(    9) = (   0.1250044   0.3750131   0.0000000), wk =   0.0625000
        k(   10) = (   0.1250044  -0.5000175   0.0000000), wk =   0.0625000
        k(   11) = (   0.1250044  -0.3750131   0.0000000), wk =   0.0625000
        k(   12) = (   0.1250044  -0.2500088   0.0000000), wk =   0.0625000
        k(   13) = (   0.1250044  -0.1250044   0.0000000), wk =   0.0625000
        k(   14) = (   0.2500088  -0.0000000   0.0000000), wk =   0.0625000
        k(   15) = (   0.2500088   0.1250044   0.0000000), wk =   0.0625000
        k(   16) = (   0.2500088   0.2500088   0.0000000), wk =   0.0625000
        k(   17) = (   0.2500088   0.3750131   0.0000000), wk =   0.0625000
        k(   18) = (   0.2500088  -0.5000175   0.0000000), wk =   0.0625000
        k(   19) = (   0.2500088  -0.3750131   0.0000000), wk =   0.0625000
        k(   20) = (   0.2500088  -0.2500088   0.0000000), wk =   0.0625000
        k(   21) = (   0.2500088  -0.1250044   0.0000000), wk =   0.0625000
        k(   22) = (   0.3750131  -0.0000000   0.0000000), wk =   0.0625000
        k(   23) = (   0.3750131   0.1250044   0.0000000), wk =   0.0625000
        k(   24) = (   0.3750131   0.2500088   0.0000000), wk =   0.0625000
        k(   25) = (   0.3750131   0.3750131   0.0000000), wk =   0.0625000
        k(   26) = (   0.3750131  -0.5000175   0.0000000), wk =   0.0625000
        k(   27) = (   0.3750131  -0.3750131   0.0000000), wk =   0.0625000
        k(   28) = (   0.3750131  -0.2500088   0.0000000), wk =   0.0625000
        k(   29) = (   0.3750131  -0.1250044   0.0000000), wk =   0.0625000
        k(   30) = (  -0.5000175   0.0000000   0.0000000), wk =   0.0312500
        k(   31) = (  -0.5000175   0.1250044   0.0000000), wk =   0.0625000
        k(   32) = (  -0.5000175   0.2500088   0.0000000), wk =   0.0625000
        k(   33) = (  -0.5000175   0.3750131   0.0000000), wk =   0.0625000
        k(   34) = (  -0.5000175  -0.5000175   0.0000000), wk =   0.0312500

     Initial potential from superposition of free atoms

     starting charge  135.93448, renormalised to  136.00000

[...]

     Starting wfcs are   90 randomized atomic wfcs

     Self-consistent Calculation

[...]

     negative rho (up, down):  1.628E-05 0.000E+00

[...]

     iteration # 32     ecut=    80.00 Ry     beta= 0.30
     Davidson diagonalization with overlap
     c_bands:  1 eigenvalues not converged
     ethr =  3.11E-05,  avg # of iterations =  5.3

[...]

     total energy              =    -912.66609575 Ry
     Harris-Foulkes estimate   =    -912.66609582 Ry
     estimated scf accuracy    <          4.5E-11 Ry

     iteration # 49     ecut=    80.00 Ry     beta= 0.30
     Davidson diagonalization with overlap
     ethr =  1.00E-13,  avg # of iterations =  1.3

     Adding external electric field

     Computed dipole along edir(3) :
        Dipole                4.6246 Ry au,         11.7546 Debye
        Dipole field          0.0249 Ry au,

        E field amplitude [Ha a.u.]:  3.5000E-02
        Potential amp.        0.8316 Ry
        Total length         41.1999 bohr

     End of self-consistent calculation

[...]

          k = 0.3750-0.1250 0.0000 ( 28238 PWs)   bands (ev):

[...]

          k =-0.5000-0.5000 0.0000 ( 28120 PWs)   bands (ev):

   -50.4305 -50.3920 -50.3697 -26.8899 -26.8899 -26.8664 -26.8664 -26.8378
   -26.8084 -26.8084 -26.7574 -26.7297 -20.0523 -19.7665 -18.8108 -18.7002
   -10.5318 -10.5318 -10.4854 -10.4795 -10.4795 -10.2349 -10.2228 -10.2228
   -10.0584  -9.7313  -5.7543  -5.7543  -5.5559  -5.4970  -5.4371  -5.4371
    -4.7677  -4.7677  -4.6190  -4.3695  -4.3695  -4.0329   1.0800   1.1035
     1.2917   1.5855   1.5921   1.6437   1.7759   2.1603   2.2218   2.7897
     2.7897   2.9010   2.9857   2.9857   3.0068   3.3031   3.3031   3.9652
     4.4329   4.9345   4.9345   5.1618   5.1618   5.2818   5.2818   5.3341
     5.4235   5.5710   5.5710   5.6688   9.6070   9.6070   9.7353   9.7353
     9.7625   9.8669   9.9163   9.9163  10.0591  10.0820  10.0820  10.1539
    10.3626  11.1263

     the Fermi energy is     5.6720 ev

!    total energy              =    -912.66609575 Ry
     Harris-Foulkes estimate   =    -912.66609589 Ry
     estimated scf accuracy    <          8.8E-12 Ry

     The total energy is the sum of the following terms:

     one-electron contribution =   -4582.86719503 Ry
     hartree contribution      =    2349.35955654 Ry
     xc contribution           =    -188.13090836 Ry
     ewald contribution        =    1509.18118419 Ry
     electric field correction =      -0.20853496 Ry
     smearing contrib. (-TS)   =      -0.00019813 Ry

     convergence has been achieved in  49 iterations

     Forces acting on atoms (cartesian axes, Ry/au):

     atom    1 type  1   force =    -0.00000000    0.00000000   -0.00030986
     atom    2 type  3   force =    -0.00000000   -0.00000001   -0.00093954
     atom    3 type  2   force =     0.00000000    0.00000000   -0.00051774
     atom    4 type  3   force =     0.00000000   -0.00000000   -0.00048706
     atom    5 type  3   force =     0.00000001    0.00000000   -0.00048703
     atom    6 type  1   force =    -0.00000000    0.00000001   -0.00039824
     atom    7 type  3   force =    -0.00000000   -0.00000001   -0.00009102
     atom    8 type  2   force =    -0.00000001    0.00000007   -0.00025329
     atom    9 type  3   force =     0.00000000   -0.00000005   -0.00028862
     atom   10 type  3   force =     0.00000000   -0.00000003   -0.00028868
     atom   11 type  1   force =    -0.00000000    0.00000002   -0.00007916
     atom   12 type  3   force =     0.00000000   -0.00000001    0.00070222
     atom   13 type  2   force =    -0.00000000    0.00000001    0.00069481
     atom   14 type  3   force =     0.00000000   -0.00000001    0.00067846
     atom   15 type  3   force =     0.00000000    0.00000000    0.00067846
     atom   16 type  1   force =    -0.00000000    0.00000000    0.00049915
     atom   17 type  3   force =     0.00000000   -0.00000000    0.00088716

      =     0.002249     Total SCF correction =     0.000009

     Computing stress (Cartesian axis) and pressure

          total   stress  (Ry/bohr**3)                   (kbar)     P=   -2.54
  -0.00000251   0.00000000  -0.00000000         -0.37      0.00     -0.00
   0.00000000  -0.00000251   0.00000000          0.00     -0.37      0.00
  -0.00000000   0.00000000  -0.00004684         -0.00      0.00     -6.89

     Writing output data file BaTiO3_7_Ba-O_P4mm.save/

     General routines

     Parallel routines

   This run was terminated on:  15:26: 3   4Jun2021

   JOB DONE.