     Program PWSCF v.6.4.1 starts on  4Jun2021 at 15:26: 7

     K-points division:     npool     =       4
     R & G space division:  proc/nbgrp/npool/nimage =      40
     Waiting for input...
     Reading input from standard input

     Current dimensions of program PWSCF are:
     Max number of different atomic species (ntypx) = 10
     Max number of k-points (npk) =  40000
     Max angular momentum in pseudopotentials (lmaxx) =  3
     Presently no symmetry can be used with electric field

     bravais-lattice index     =            0
     lattice parameter (alat)  =       7.4782  a.u.
     unit-cell volume          =    2333.2066 (a.u.)^3
     number of atoms/cell      =           17
     number of atomic types    =            3
     number of electrons       =       136.00
     number of Kohn-Sham states=           82
     kinetic-energy cutoff     =      80.0000  Ry
     charge density cutoff     =     400.0000  Ry
     convergence threshold     =      1.0E-09
     mixing beta               =       0.3000
     number of iterations used =            8  plain     mixing
     Exchange-correlation      = PBESOL ( 1  4 10  8 0 0)
     nstep                     =           50

     celldm(1)=   7.478204  celldm(2)=   0.000000  celldm(3)=   0.000000
     celldm(4)=   0.000000  celldm(5)=   0.000000  celldm(6)=   0.000000

     crystal axes: (cart. coord. in units of alat)
               a(1) = (   1.000000   0.000000   0.000000 )
               a(2) = (   0.000000   1.000000   0.000000 )
               a(3) = (   0.000000   0.000000   5.579064 )

     reciprocal axes: (cart. coord. in units 2 pi/alat)
               b(1) = (  1.000000  0.000000  0.000000 )
               b(2) = (  0.000000  1.000000  0.000000 )
               b(3) = (  0.000000  0.000000  0.179242 )

     PseudoPot. # 1 for Ba read from file:
     ./pseudo/Ba.pbesol-nc-sr.upf
     MD5 check sum: 716a24e91cb490012dd496b6aa92d00e
     Pseudo is Norm-conserving + core correction, Zval = 10.0
     Generated using ONCVPSP code by D. R. Hamann
     Using radial grid of 1936 points,  6 beta functions with:
                l(1) =   0
                l(2) =   0
                l(3) =   1
                l(4) =   1
                l(5) =   2
                l(6) =   2

     PseudoPot. # 2 for Ti read from file:
     ./pseudo/Ti.pbesol-nc-sr.upf
     MD5 check sum: c7cef475492d2ee3d0561e3a3e59fcd4
     Pseudo is Norm-conserving + core correction, Zval = 12.0
     Generated using ONCVPSP code by D. R. Hamann
     Using radial grid of 1586 points,  6 beta functions with:
                l(1) =   0
                l(2) =   0
                l(3) =   1
                l(4) =   1
                l(5) =   2
                l(6) =   2

     PseudoPot. # 3 for O  read from file:
     ./pseudo/O.pbesol-nc-sr.upf
     MD5 check sum: f226cbcd508cec715ff87a8f75a1dfba
     Pseudo is Norm-conserving + core correction, Zval =  6.0
     Generated using ONCVPSP code by D. R. Hamann
     Using radial grid of  936 points,  5 beta functions with:
                l(1) =   0
                l(2) =   0
                l(3) =   1
                l(4) =   1
                l(5) =   2

     atomic species   valence    mass     pseudopotential
        Ba            10.00   137.32700     Ba( 1.00)
        Ti            12.00    47.86700     Ti( 1.00)
        O              6.00    15.99940     O ( 1.00)

     No symmetry found

   Cartesian axes

     site n.     atom                  positions (alat units)
         1           Ba  tau(   1) = (   0.0000000   0.0000000   1.3151914  )
         2           O   tau(   2) = (   0.5000000   0.5000000   1.2889760  )
         3           Ti  tau(   3) = (   0.5000000   0.5000000   1.7847672  )
         4           O   tau(   4) = (   0.5000000  -0.0000000   1.7806683  )
         5           O   tau(   5) = (   0.0000000   0.5000000   1.7806683  )
         6           Ba  tau(   6) = (  -0.0000000   0.0000001   2.3014219  )
         7           O   tau(   7) = (   0.5000000   0.5000000   2.2850070  )
         8           Ti  tau(   8) = (   0.4999999   0.5000004   2.8094652  )
         9           O   tau(   9) = (   0.5000000  -0.0000002   2.7959913  )
        10           O   tau(  10) = (   0.0000000   0.4999999   2.7959914  )
        11           Ba  tau(  11) = (  -0.0000000   0.0000001   3.3060234  )
        12           O   tau(  12) = (   0.5000000   0.5000000   3.2926459  )
        13           Ti  tau(  13) = (   0.5000000   0.5000000   3.8344896  )
        14           O   tau(  14) = (   0.5000000  -0.0000000   3.8179768  )
        15           O   tau(  15) = (   0.0000000   0.5000000   3.8179768  )
        16           Ba  tau(  16) = (  -0.0000000   0.0000000   4.3157205  )
        17           O   tau(  17) = (   0.5000000   0.5000000   4.3006043  )

     number of k points=    34  gaussian smearing, width (Ry)=  0.0050
                       cart. coord. in units 2pi/alat
        k(    1) = (   0.0000000   0.0000000   0.0000000), wk =   0.0312500
        k(    2) = (   0.0000000   0.1250000   0.0000000), wk =   0.0625000
        k(    3) = (   0.0000000   0.2500000   0.0000000), wk =   0.0625000
        k(    4) = (   0.0000000   0.3750000   0.0000000), wk =   0.0625000
        k(    5) = (   0.0000000  -0.5000000   0.0000000), wk =   0.0312500
        k(    6) = (   0.1250000   0.0000000   0.0000000), wk =   0.0625000
        k(    7) = (   0.1250000   0.1250000   0.0000000), wk =   0.0625000
        k(    8) = (   0.1250000   0.2500000   0.0000000), wk =   0.0625000
        k(    9) = (   0.1250000   0.3750000   0.0000000), wk =   0.0625000
        k(   10) = (   0.1250000  -0.5000000   0.0000000), wk =   0.0625000
        k(   11) = (   0.1250000  -0.3750000   0.0000000), wk =   0.0625000
        k(   12) = (   0.1250000  -0.2500000   0.0000000), wk =   0.0625000
        k(   13) = (   0.1250000  -0.1250000   0.0000000), wk =   0.0625000
        k(   14) = (   0.2500000   0.0000000   0.0000000), wk =   0.0625000
        k(   15) = (   0.2500000   0.1250000   0.0000000), wk =   0.0625000
        k(   16) = (   0.2500000   0.2500000   0.0000000), wk =   0.0625000
        k(   17) = (   0.2500000   0.3750000   0.0000000), wk =   0.0625000
        k(   18) = (   0.2500000  -0.5000000   0.0000000), wk =   0.0625000
        k(   19) = (   0.2500000  -0.3750000   0.0000000), wk =   0.0625000
        k(   20) = (   0.2500000  -0.2500000   0.0000000), wk =   0.0625000
        k(   21) = (   0.2500000  -0.1250000   0.0000000), wk =   0.0625000
        k(   22) = (   0.3750000   0.0000000   0.0000000), wk =   0.0625000
        k(   23) = (   0.3750000   0.1250000   0.0000000), wk =   0.0625000
        k(   24) = (   0.3750000   0.2500000   0.0000000), wk =   0.0625000
        k(   25) = (   0.3750000   0.3750000   0.0000000), wk =   0.0625000
        k(   26) = (   0.3750000  -0.5000000   0.0000000), wk =   0.0625000
        k(   27) = (   0.3750000  -0.3750000   0.0000000), wk =   0.0625000
        k(   28) = (   0.3750000  -0.2500000   0.0000000), wk =   0.0625000
        k(   29) = (   0.3750000  -0.1250000   0.0000000), wk =   0.0625000
        k(   30) = (  -0.5000000   0.0000000   0.0000000), wk =   0.0312500
        k(   31) = (  -0.5000000   0.1250000   0.0000000), wk =   0.0625000
        k(   32) = (  -0.5000000   0.2500000   0.0000000), wk =   0.0625000
        k(   33) = (  -0.5000000   0.3750000   0.0000000), wk =   0.0625000
        k(   34) = (  -0.5000000  -0.5000000   0.0000000), wk =   0.0312500

     Initial potential from superposition of free atoms

     starting charge  135.93448, renormalised to  136.00000

     negative rho (up, down):  6.113E-06 0.000E+00

     Adding external electric field

     Computed dipole along edir(3) :
        Dipole                0.0163 Ry au,          0.0415 Debye
        Dipole field          0.0001 Ry au,

        E field amplitude [Ha a.u.]:  4.0000E-02
        Potential amp.        3.2887 Ry
        Total length         41.1999 bohr

     Starting wfcs are   90 randomized atomic wfcs

     Self-consistent Calculation

     iteration #  1     ecut=    80.00 Ry     beta= 0.30
     Davidson diagonalization with overlap
     ethr =  1.00E-02,  avg # of iterations =  8.3

[...]

     total energy              =     569.54798851 Ry
     Harris-Foulkes estimate   =    -783.41109217 Ry
     estimated scf accuracy    <    2951.67640598 Ry

[...]

     iteration # 28     ecut=    80.00 Ry     beta= 0.30
     Davidson diagonalization with overlap
     c_bands:  1 eigenvalues not converged
     c_bands:  1 eigenvalues not converged
     ethr =  9.01E-05,  avg # of iterations = 12.8

[...]

     End of self-consistent calculation

          k = 0.0000 0.0000 0.0000 ( 28203 PWs)   bands (ev):

   -50.5800 -50.5455 -50.4770 -26.9909 -26.9909 -26.9426 -26.9239 -26.9239
   -26.9190 -26.8834 -26.8746 -26.8746 -20.1857 -20.1045 -19.1512 -19.0712
   -11.6995 -11.5489 -11.3380 -10.8491 -10.6882 -10.5877 -10.4193 -10.2374
   -10.0401  -9.8300  -5.2716  -5.2661  -5.1487  -5.1487  -5.0723  -5.0723
    -4.2776  -4.2776  -4.2728  -4.1742  -4.1742  -4.0200   1.9775   2.6531
     2.6531   2.7059   2.8354   2.8354   3.1271   3.1271   3.3460   3.4603
     3.4752   3.6793   3.8451   3.8843   3.8843   4.0513   4.0513   4.0808
     4.2014   4.2014   4.3129   4.3129   4.3555   4.8756   4.8756   5.0466
     5.0466   5.0655   5.3756   5.3756   5.4185   7.3296   7.4551   7.5310
     7.9354   7.9354   8.5377   8.5377   8.7636   9.0499   9.0499   9.7366
     9.7653   9.8717

[...]

          k =-0.5000 0.0000 0.0000 ( 28214 PWs)   bands (ev):

[...]

     the Fermi energy is     5.4782 ev

!    total energy              =    -912.71587233 Ry
     Harris-Foulkes estimate   =    -912.71587553 Ry
     estimated scf accuracy    <          5.8E-10 Ry

     The total energy is the sum of the following terms:

     one-electron contribution =   -4581.43867102 Ry
     hartree contribution      =    2347.93386554 Ry
     xc contribution           =    -188.11841483 Ry
     ewald contribution        =    1509.18118851 Ry
     electric field correction =      -0.27343435 Ry
     smearing contrib. (-TS)   =      -0.00040618 Ry

     convergence has been achieved in  44 iterations

     Forces acting on atoms (cartesian axes, Ry/au):

     atom    1 type  1   force =    -0.00000001    0.00000000   -0.00231881
     atom    2 type  3   force =    -0.00000001   -0.00000001    0.00141026
     atom    3 type  2   force =     0.00000001    0.00000000   -0.00272866
     atom    4 type  3   force =     0.00000000   -0.00000001    0.00002521
     atom    5 type  3   force =     0.00000001    0.00000000    0.00002525
     atom    6 type  1   force =    -0.00000000    0.00000001   -0.00040596
     atom    7 type  3   force =     0.00000000   -0.00000000   -0.00034506
     atom    8 type  2   force =    -0.00000001    0.00000006    0.00356421
     atom    9 type  3   force =     0.00000000   -0.00000004   -0.00156198
     atom   10 type  3   force =     0.00000000   -0.00000001   -0.00156203
     atom   11 type  1   force =    -0.00000000    0.00000001    0.00322828
     atom   12 type  3   force =     0.00000001   -0.00000001   -0.00504430
     atom   13 type  2   force =     0.00000001    0.00000000    0.00937270
     atom   14 type  3   force =     0.00000000   -0.00000001   -0.00240487
     atom   15 type  3   force =    -0.00000002    0.00000000   -0.00240491
     atom   16 type  1   force =     0.00000000    0.00000000    0.00725833
     atom   17 type  3   force =    -0.00000000   -0.00000001   -0.00610765

     Total force =     0.016061     Total SCF correction =     0.000091

     Computing stress (Cartesian axis) and pressure

          total   stress  (Ry/bohr**3)                   (kbar)     P=   -2.18
   0.00000376   0.00000000  -0.00000000          0.55      0.00     -0.00
   0.00000000   0.00000376   0.00000000          0.00      0.55      0.00
  -0.00000000   0.00000000  -0.00005195         -0.00      0.00     -7.64

     BFGS Geometry Optimization

     number of scf cycles    =   1
     number of bfgs steps    =   0

     enthalpy new            =    -912.7158723294 Ry

     new trust radius        =       0.0093727009 bohr
     new conv_thr            =       0.0000000010 Ry

     new unit-cell volume =   2333.64481 a.u.^3 (   345.81048 Ang^3 )
     density =      4.09553 g/cm^3

CELL_PARAMETERS (angstrom)
   3.957666634   0.000000010   0.000000000
   0.000000010   3.957666645   0.000000000
   0.000000000   0.000000000  22.078000000

ATOMIC_POSITIONS (crystal)
Ba      -0.000000001   0.000000007   0.235681362
O        0.500000002   0.499999984   0.231071854
Ti       0.499999996   0.500000029   0.319839043
O        0.500000002  -0.000000021   0.319170349
O        0.000000006   0.499999990   0.319170348
Ba      -0.000000007   0.000000052   0.412500705
O        0.500000009   0.499999947   0.409559922
Ti       0.499999948   0.500000378   0.503658333
O        0.500000020  -0.000000249   0.501120385
O        0.000000033   0.499999867   0.501120394
Ba      -0.000000010   0.000000074   0.592654137
O        0.500000011   0.499999944   0.590058060
Ti       0.499999998   0.500000039   0.687524516
O        0.499999997  -0.000000021   0.684282443
O       -0.000000000   0.499999991   0.684282441
Ba      -0.000000001   0.000000012   0.773730400
O        0.500000001   0.499999980   0.770700587

     Writing output data file BaTiO3_7_Ba-O_P4mm.save/
     NEW-OLD atomic charge density approx. for the potential

[...]

     extrapolated charge  136.02553, renormalised to  136.00000

[...]

     enthalpy old            =    -912.7158723294 Ry
     enthalpy new            =    -912.7160696883 Ry

     CASE: enthalpy_new < enthalpy_old

[...]

     CASE: enthalpy_new < enthalpy_old

[...]

     CASE: enthalpy_new > enthalpy_old

[...]

     negative rho (up, down):  5.995E-06 0.000E+00

[...]

     Threshold (ethr) on eigenvalues was too large:
     Diagonalizing with lowered threshold

     Davidson diagonalization with overlap
     ethr =  2.40E-08,  avg # of iterations =  1.0

[...]

     new trust radius        =       0.0000056386 bohr

     trust_radius < trust_radius_min

     resetting bfgs history

     new conv_thr            =            1.0E-11 Ry

[...]

     Threshold (ethr) on eigenvalues was too large:
     Diagonalizing with lowered threshold

     Davidson diagonalization with overlap
     ethr =  1.76E-08,  avg # of iterations =  1.0

[...]

     new trust radius        =       0.0000057415 bohr

     trust_radius < trust_radius_min

     resetting bfgs history

     new conv_thr            =            1.0E-11 Ry

[...]

     iteration #  7     ecut=    80.00 Ry     beta= 0.30
     Davidson diagonalization with overlap
     c_bands:  1 eigenvalues not converged
     ethr =  1.70E-06,  avg # of iterations =  9.1

[...]

     Self-consistent Calculation

[...]

     total energy              =    -912.71618102 Ry
     Harris-Foulkes estimate   =    -912.71618105 Ry
     estimated scf accuracy    <          2.2E-11 Ry

     iteration # 23     ecut=    80.00 Ry     beta= 0.30
     Davidson diagonalization with overlap
     ethr =  1.00E-13,  avg # of iterations =  1.0

[...]

     End of self-consistent calculation

[...]

          k = 0.3750-0.1250 0.0000 ( 28238 PWs)   bands (ev):

[...]

          k =-0.5000-0.5000 0.0000 ( 28120 PWs)   bands (ev):

   -50.5201 -50.4795 -50.4623 -26.9772 -26.9772 -26.9540 -26.9540 -26.9357
   -26.9016 -26.9016 -26.8521 -26.8204 -20.1684 -19.8664 -18.9148 -18.7941
   -10.6224 -10.6224 -10.5932 -10.5593 -10.5593 -10.3413 -10.3239 -10.3239
   -10.1715  -9.8357  -5.8725  -5.8725  -5.6440  -5.5874  -5.5379  -5.5379
    -4.8679  -4.8679  -4.7149  -4.4686  -4.4686  -4.1344   0.9928   1.0173
     1.1940   1.4952   1.5107   1.5444   1.6778   2.0646   2.1242   2.6820
     2.6820   2.7977   2.8823   2.8823   2.9094   3.1945   3.1945   3.8517
     4.3365   4.8242   4.8242   5.0588   5.0588   5.1783   5.1783   5.2450
     5.3488   5.4744   5.4744   5.5664   9.5176   9.5176   9.6342   9.6342
     9.6492   9.7793   9.7990   9.7990   9.9395   9.9730   9.9730  10.0323
    11.0603  11.0603

     the Fermi energy is     5.5491 ev

!    total energy              =    -912.71618102 Ry
     Harris-Foulkes estimate   =    -912.71618106 Ry
     estimated scf accuracy    <          9.5E-13 Ry

     The total energy is the sum of the following terms:

     one-electron contribution =   -4567.35512705 Ry
     hartree contribution      =    2341.06422641 Ry
     xc contribution           =    -188.10906988 Ry
     ewald contribution        =    1501.95883216 Ry
     electric field correction =      -0.27463698 Ry
     smearing contrib. (-TS)   =      -0.00040568 Ry

     convergence has been achieved in  23 iterations

     Forces acting on atoms (cartesian axes, Ry/au):

     atom    1 type  1   force =    -0.00000000    0.00000000   -0.00032209
     atom    2 type  3   force =    -0.00000000   -0.00000001   -0.00118069
     atom    3 type  2   force =     0.00000000    0.00000001   -0.00016297
     atom    4 type  3   force =    -0.00000000   -0.00000000   -0.00071164
     atom    5 type  3   force =     0.00000000   -0.00000001   -0.00071163
     atom    6 type  1   force =    -0.00000000    0.00000001   -0.00068929
     atom    7 type  3   force =    -0.00000000   -0.00000000   -0.00021480
     atom    8 type  2   force =    -0.00000001    0.00000007   -0.00149221
     atom    9 type  3   force =     0.00000001   -0.00000006   -0.00007231
     atom   10 type  3   force =     0.00000000   -0.00000002   -0.00007228
     atom   11 type  1   force =    -0.00000000    0.00000001   -0.00047049
     atom   12 type  3   force =     0.00000000   -0.00000001    0.00156558
     atom   13 type  2   force =    -0.00000001    0.00000001   -0.00026656
     atom   14 type  3   force =     0.00000002   -0.00000000    0.00112771
     atom   15 type  3   force =    -0.00000002   -0.00000001    0.00112769
     atom   16 type  1   force =     0.00000000    0.00000001    0.00067972
     atom   17 type  3   force =     0.00000001   -0.00000001    0.00186625

     Total force =     0.003811     Total SCF correction =     0.000004

     Computing stress (Cartesian axis) and pressure

          total   stress  (Ry/bohr**3)                   (kbar)     P=   -2.86
  -0.00000386   0.00000000  -0.00000000         -0.57      0.00     -0.00
   0.00000000  -0.00000386   0.00000000          0.00     -0.57      0.00
  -0.00000000   0.00000000  -0.00005060         -0.00      0.00     -7.44

     number of scf cycles    =  50
     number of bfgs steps    =   5

     enthalpy old            =    -912.7161847701 Ry
     enthalpy new            =    -912.7161810240 Ry

     CASE: enthalpy_new > enthalpy_old

     new trust radius        =       0.0001817896 bohr
     new conv_thr            =            1.0E-11 Ry

     new unit-cell volume =   2333.59708 a.u.^3 (   345.80341 Ang^3 )
     density =      4.09562 g/cm^3

CELL_PARAMETERS (angstrom)
   3.957626209  -0.000000002   0.000000000
  -0.000000002   3.957626121   0.000000000
   0.000000000   0.000000000  22.078000000

ATOMIC_POSITIONS (crystal)
Ba      -0.000000002   0.000000007   0.235443118
O        0.500000000   0.499999988   0.231091882
Ti       0.499999991   0.500000030   0.319736816
O        0.500000006  -0.000000027   0.319062391
O        0.000000007   0.499999992   0.319062387
Ba      -0.000000009   0.000000060   0.412399168
O        0.500000014   0.499999932   0.409436958
Ti       0.499999935   0.500000441   0.503665438
O        0.500000011  -0.000000289   0.501016065
O        0.000000043   0.499999831   0.501016061
Ba      -0.000000011   0.000000089   0.592819855
O        0.500000012   0.499999927   0.589900636
Ti       0.499999996   0.500000050   0.687611029
O        0.499999993  -0.000000024   0.684304378
O        0.000000018   0.499999999   0.684304384
Ba      -0.000000002   0.000000015   0.774428142
O        0.500000001   0.499999982   0.770826568

     Writing output data file BaTiO3_7_Ba-O_P4mm.save/
     NEW-OLD atomic charge density approx. for the potential

     Adding external electric field

     Computed dipole along edir(3) :
        Dipole                5.3829 Ry au,         13.6819 Debye
        Dipole field          0.0290 Ry au,

        E field amplitude [Ha a.u.]:  4.0000E-02
        Potential amp.        0.9075 Ry
        Total length         41.1999 bohr

     extrapolated charge  136.00559, renormalised to  136.00000

     Writing output data file BaTiO3_7_Ba-O_P4mm.save/

     General routines

     Parallel routines

   This run was terminated on:  16:10:32   4Jun2021

   JOB DONE.