     Program PWSCF v.6.4.1 starts on  4Jun2021 at 14: 0:48

     K-points division:     npool     =       4
     R & G space division:  proc/nbgrp/npool/nimage =      40
     Waiting for input...
     Reading input from standard input

     Current dimensions of program PWSCF are:
     Max number of different atomic species (ntypx) = 10
     Max number of k-points (npk) =  40000
     Max angular momentum in pseudopotentials (lmaxx) =  3
     Presently no symmetry can be used with electric field

     bravais-lattice index     =            0
     lattice parameter (alat)  =       7.5324  a.u.
     unit-cell volume          =    2367.1780 (a.u.)^3
     number of atoms/cell      =           17
     number of atomic types    =            3
     number of electrons       =       136.00
     number of Kohn-Sham states=           82
     kinetic-energy cutoff     =      80.0000  Ry
     charge density cutoff     =     400.0000  Ry
     convergence threshold     =      1.0E-09
     mixing beta               =       0.3000
     number of iterations used =            8  plain     mixing
     Exchange-correlation      = PBESOL ( 1  4 10  8 0 0)
     nstep                     =           50

     celldm(1)=   7.532448  celldm(2)=   0.000000  celldm(3)=   0.000000
     celldm(4)=   0.000000  celldm(5)=   0.000000  celldm(6)=   0.000000

     crystal axes: (cart. coord. in units of alat)
               a(1) = (   1.000000   0.000000   0.000000 )
               a(2) = (   0.000000   1.000000   0.000000 )
               a(3) = (   0.000000   0.000000   5.538886 )

     reciprocal axes: (cart. coord. in units 2 pi/alat)
               b(1) = (  1.000000  0.000000  0.000000 )
               b(2) = (  0.000000  1.000000  0.000000 )
               b(3) = (  0.000000  0.000000  0.180542 )

     PseudoPot. # 1 for Ba read from file:
     ./pseudo/Ba.pbesol-nc-sr.upf
     MD5 check sum: 716a24e91cb490012dd496b6aa92d00e
     Pseudo is Norm-conserving + core correction, Zval = 10.0
     Generated using ONCVPSP code by D. R. Hamann
     Using radial grid of 1936 points,  6 beta functions with:
                l(1) =   0
                l(2) =   0
                l(3) =   1
                l(4) =   1
                l(5) =   2
                l(6) =   2

     PseudoPot. # 2 for Ti read from file:
     ./pseudo/Ti.pbesol-nc-sr.upf
     MD5 check sum: c7cef475492d2ee3d0561e3a3e59fcd4
     Pseudo is Norm-conserving + core correction, Zval = 12.0
     Generated using ONCVPSP code by D. R. Hamann
     Using radial grid of 1586 points,  6 beta functions with:
                l(1) =   0
                l(2) =   0
                l(3) =   1
                l(4) =   1
                l(5) =   2
                l(6) =   2

     PseudoPot. # 3 for O  read from file:
     ./pseudo/O.pbesol-nc-sr.upf
     MD5 check sum: f226cbcd508cec715ff87a8f75a1dfba
     Pseudo is Norm-conserving + core correction, Zval =  6.0
     Generated using ONCVPSP code by D. R. Hamann
     Using radial grid of  936 points,  5 beta functions with:
                l(1) =   0
                l(2) =   0
                l(3) =   1
                l(4) =   1
                l(5) =   2

     atomic species   valence    mass     pseudopotential
        Ba            10.00   137.32700     Ba( 1.00)
        Ti            12.00    47.86700     Ti( 1.00)
        O              6.00    15.99940     O ( 1.00)

     No symmetry found

   Cartesian axes

     site n.     atom                  positions (alat units)
         1           Ba  tau(   1) = (   0.0000000   0.0000000   1.2739438  )
         2           O   tau(   2) = (   0.5000000   0.5000000   1.2507130  )
         3           Ti  tau(   3) = (   0.5000000   0.5000000   1.7941119  )
         4           O   tau(   4) = (   0.5000000   0.0000000   1.7648209  )
         5           O   tau(   5) = (   0.0000000   0.5000000   1.7648209  )
         6           Ba  tau(   6) = (   0.0000000   0.0000000   2.2839789  )
         7           O   tau(   7) = (   0.5000000   0.5000000   2.2607481  )
         8           Ti  tau(   8) = (   0.5000000   0.5000000   2.8041470  )
         9           O   tau(   9) = (   0.5000000   0.0000000   2.7748560  )
        10           O   tau(  10) = (   0.0000000   0.5000000   2.7748560  )
        11           Ba  tau(  11) = (   0.0000000   0.0000000   3.2940140  )
        12           O   tau(  12) = (   0.5000000   0.5000000   3.2707832  )
        13           Ti  tau(  13) = (   0.5000000   0.5000000   3.8141821  )
        14           O   tau(  14) = (   0.5000000   0.0000000   3.7848911  )
        15           O   tau(  15) = (   0.0000000   0.5000000   3.7848911  )
        16           Ba  tau(  16) = (   0.0000000   0.0000000   4.3040492  )
        17           O   tau(  17) = (   0.5000000   0.5000000   4.2808184  )

     number of k points=    34  gaussian smearing, width (Ry)=  0.0050
                       cart. coord. in units 2pi/alat
        k(    1) = (   0.0000000   0.0000000   0.0000000), wk =   0.0312500
        k(    2) = (   0.0000000   0.1250000   0.0000000), wk =   0.0625000
        k(    3) = (   0.0000000   0.2500000   0.0000000), wk =   0.0625000
        k(    4) = (   0.0000000   0.3750000   0.0000000), wk =   0.0625000
        k(    5) = (   0.0000000  -0.5000000   0.0000000), wk =   0.0312500
        k(    6) = (   0.1250000   0.0000000   0.0000000), wk =   0.0625000
        k(    7) = (   0.1250000   0.1250000   0.0000000), wk =   0.0625000
        k(    8) = (   0.1250000   0.2500000   0.0000000), wk =   0.0625000
        k(    9) = (   0.1250000   0.3750000   0.0000000), wk =   0.0625000
        k(   10) = (   0.1250000  -0.5000000   0.0000000), wk =   0.0625000
        k(   11) = (   0.1250000  -0.3750000   0.0000000), wk =   0.0625000
        k(   12) = (   0.1250000  -0.2500000   0.0000000), wk =   0.0625000
        k(   13) = (   0.1250000  -0.1250000   0.0000000), wk =   0.0625000
        k(   14) = (   0.2500000   0.0000000   0.0000000), wk =   0.0625000
        k(   15) = (   0.2500000   0.1250000   0.0000000), wk =   0.0625000
        k(   16) = (   0.2500000   0.2500000   0.0000000), wk =   0.0625000
        k(   17) = (   0.2500000   0.3750000   0.0000000), wk =   0.0625000
        k(   18) = (   0.2500000  -0.5000000   0.0000000), wk =   0.0625000
        k(   19) = (   0.2500000  -0.3750000   0.0000000), wk =   0.0625000
        k(   20) = (   0.2500000  -0.2500000   0.0000000), wk =   0.0625000
        k(   21) = (   0.2500000  -0.1250000   0.0000000), wk =   0.0625000
        k(   22) = (   0.3750000   0.0000000   0.0000000), wk =   0.0625000
        k(   23) = (   0.3750000   0.1250000   0.0000000), wk =   0.0625000
        k(   24) = (   0.3750000   0.2500000   0.0000000), wk =   0.0625000
        k(   25) = (   0.3750000   0.3750000   0.0000000), wk =   0.0625000
        k(   26) = (   0.3750000  -0.5000000   0.0000000), wk =   0.0625000
        k(   27) = (   0.3750000  -0.3750000   0.0000000), wk =   0.0625000
        k(   28) = (   0.3750000  -0.2500000   0.0000000), wk =   0.0625000
        k(   29) = (   0.3750000  -0.1250000   0.0000000), wk =   0.0625000
        k(   30) = (  -0.5000000   0.0000000   0.0000000), wk =   0.0312500
        k(   31) = (  -0.5000000   0.1250000   0.0000000), wk =   0.0625000
        k(   32) = (  -0.5000000   0.2500000   0.0000000), wk =   0.0625000
        k(   33) = (  -0.5000000   0.3750000   0.0000000), wk =   0.0625000
        k(   34) = (  -0.5000000  -0.5000000   0.0000000), wk =   0.0312500

     Initial potential from superposition of free atoms

     starting charge  135.93448, renormalised to  136.00000

     negative rho (up, down):  4.559E-06 0.000E+00

     Adding external electric field

     Computed dipole along edir(3) :
        Dipole                0.0211 Ry au,          0.0537 Debye
        Dipole field          0.0001 Ry au,

        Potential amp.       -0.0092 Ry
        Total length         41.1999 bohr

     Starting wfcs are   90 randomized atomic wfcs

     Self-consistent Calculation

     iteration #  1     ecut=    80.00 Ry     beta= 0.30
     Davidson diagonalization with overlap
     ethr =  1.00E-02,  avg # of iterations =  2.9

[...]

     total energy              =    -911.21898827 Ry
     Harris-Foulkes estimate   =    -914.08520086 Ry
     estimated scf accuracy    <       6.40668132 Ry

[...]

     End of self-consistent calculation

          k = 0.0000 0.0000 0.0000 ( 28531 PWs)   bands (ev):

   -51.6319 -50.7696 -49.7364 -28.0646 -27.9929 -27.9929 -27.2000 -27.1164
   -27.1164 -26.1238 -26.1086 -26.1086 -21.9050 -19.7522 -18.8617 -18.7529
   -12.5123 -11.6840 -11.5854 -11.3977 -10.9304 -10.5737 -10.5294  -9.9539
    -9.7011  -8.1912  -7.0454  -6.8388  -6.8388  -4.8885  -4.8885  -4.7742
    -4.1005  -3.9053  -3.9053  -3.7589  -3.7589  -3.7198   1.3598   1.8164
     1.8164   2.1357   2.6775   2.6775   2.6814   2.7876   2.8988   2.8988
     3.2074   3.2957   3.2957   3.7989   3.7989   3.8710   3.9723   3.9723
     4.2883   4.3187   4.3187   4.5661   4.7683   5.0551   5.0551   5.5644
     5.5644   6.1561   6.3957   6.5192   6.5868   6.5868   7.2523   7.2523
     7.3518   8.0035   8.3195   8.3550   8.3550   8.7163   9.2305   9.2981
     9.5237   9.5237

[...]

          k =-0.5000 0.0000 0.0000 ( 28646 PWs)   bands (ev):

[...]

     the Fermi energy is     6.6534 ev

!    total energy              =    -912.44857658 Ry
     Harris-Foulkes estimate   =    -912.44857654 Ry
     estimated scf accuracy    <          8.1E-11 Ry

     The total energy is the sum of the following terms:

     one-electron contribution =   -4423.05586817 Ry
     hartree contribution      =    2268.73686885 Ry
     xc contribution           =    -187.81441136 Ry
     ewald contribution        =    1429.68479474 Ry
     electric field correction =       0.00075133 Ry
     smearing contrib. (-TS)   =      -0.00071196 Ry

     convergence has been achieved in  27 iterations

     Forces acting on atoms (cartesian axes, Ry/au):

     atom    1 type  1   force =    -0.00000001   -0.00000000    0.00736997
     atom    2 type  3   force =    -0.00000001    0.00000002    0.03788442
     atom    3 type  2   force =    -0.00000000   -0.00000000   -0.09724887
     atom    4 type  3   force =    -0.00000000    0.00000002    0.01501250
     atom    5 type  3   force =    -0.00000000   -0.00000000    0.01501248
     atom    6 type  1   force =    -0.00000001   -0.00000000   -0.02100900
     atom    7 type  3   force =    -0.00000001   -0.00000002    0.05404192
     atom    8 type  2   force =    -0.00000000    0.00000000   -0.05935567
     atom    9 type  3   force =     0.00000001    0.00000000    0.01958957
     atom   10 type  3   force =     0.00000001    0.00000000    0.01958956
     atom   11 type  1   force =    -0.00000000   -0.00000001   -0.02900758
     atom   12 type  3   force =     0.00000002   -0.00000001    0.04145244
     atom   13 type  2   force =    -0.00000001   -0.00000001   -0.03781849
     atom   14 type  3   force =    -0.00000001   -0.00000000    0.02939128
     atom   15 type  3   force =     0.00000002   -0.00000000    0.02939128
[...]
  -0.00000000  -0.00000000  -0.00011298         -0.00     -0.00    -16.62

     BFGS Geometry Optimization

     number of scf cycles    =   1
     number of bfgs steps    =   0

     enthalpy new            =    -912.4485765785 Ry

     new trust radius        =       0.0972488698 bohr
     new conv_thr            =       0.0000000010 Ry

     new unit-cell volume =   2340.76725 a.u.^3 (   346.86591 Ang^3 )
     density =      4.08307 g/cm^3

CELL_PARAMETERS (angstrom)
   3.963701560  -0.000000001   0.000000000
  -0.000000001   3.963701572   0.000000000
   0.000000000   0.000000000  22.078000000

ATOMIC_POSITIONS (crystal)
Ba      -0.000000001  -0.000000000   0.230176647
O        0.499999999   0.500000003   0.226713904
Ti       0.500000000   0.500000000   0.321581127
O        0.500000000   0.000000003   0.318983616
O       -0.000000000   0.500000000   0.318983615
Ba      -0.000000001  -0.000000000   0.411849919
O        0.499999998   0.499999998   0.409454650
Ti       0.500000000   0.500000000   0.504842845
O        0.500000001   0.000000000   0.501446796
O        0.000000002   0.500000000   0.501446795
Ba      -0.000000000  -0.000000001   0.594011679
O        0.500000003   0.499999998   0.591506372
Ti       0.499999999   0.499999999   0.687712534
O        0.499999999  -0.000000000   0.684035202
O        0.000000003   0.500000000   0.684035202
Ba      -0.000000001  -0.000000000   0.776082087
O        0.500000000   0.500000002   0.773262292

     Writing output data file BaTiO3_7_Ba-O_P4mm.save/
     NEW-OLD atomic charge density approx. for the potential

[...]

     extrapolated charge  134.46626, renormalised to  136.00000

[...]

     iteration #  1     ecut=    80.00 Ry     beta= 0.30
     Davidson diagonalization with overlap
     c_bands:  1 eigenvalues not converged
     c_bands:  1 eigenvalues not converged
     ethr =  1.00E-06,  avg # of iterations = 17.4

[...]

     enthalpy old            =    -912.4485765785 Ry
     enthalpy new            =    -912.4776207562 Ry

     CASE: enthalpy_new < enthalpy_old

[...]

     number of scf cycles    =  17
     number of bfgs steps    =  16

     enthalpy old            =    -912.5106519624 Ry
     enthalpy new            =    -912.5106597619 Ry

     CASE: enthalpy_new < enthalpy_old

     new trust radius        =       0.0024454889 bohr
     new conv_thr            =            1.0E-11 Ry

     new unit-cell volume =   2335.00926 a.u.^3 (   346.01267 Ang^3 )
     density =      4.09314 g/cm^3

[...]

ATOMIC_POSITIONS (crystal)
Ba      -0.000000003  -0.000000001   0.235540256
O        0.499999996   0.499999996   0.233172632
Ti       0.500000002   0.500000001   0.319248891
O        0.499999999  -0.000000002   0.320130282
O       -0.000000003   0.499999999   0.320130284
Ba      -0.000000000   0.000000005   0.412780587
O        0.500000000   0.499999997   0.412044165
Ti       0.500000002   0.500000027   0.502068079
O        0.499999998  -0.000000016   0.502075718
O       -0.000000001   0.499999993   0.502075720
Ba      -0.000000000   0.000000005   0.591413778
O        0.500000003   0.499999997   0.592123863
Ti       0.499999997   0.500000001   0.685044981
O        0.500000005  -0.000000001   0.684170358
O        0.000000005   0.500000000   0.684170356
Ba      -0.000000001   0.000000002   0.768782542
O        0.500000002   0.499999997   0.771152790

     Writing output data file BaTiO3_7_Ba-O_P4mm.save/
     NEW-OLD atomic charge density approx. for the potential

[...]

     extrapolated charge  136.01636, renormalised to  136.00000

[...]

     bfgs converged in  18 scf cycles and  17 bfgs steps
     (criteria: energy <  1.0E-04 Ry, force <  1.0E-03Ry/Bohr, cell <  5.0E-01kbar)

     End of BFGS Geometry Optimization

     Final enthalpy =    -912.5106624765 Ry
Begin final coordinates
     new unit-cell volume =   2335.00926 a.u.^3 (   346.01267 Ang^3 )
     density =      4.09314 g/cm^3

CELL_PARAMETERS (angstrom)
   3.958823461   0.000000001   0.000000000
   0.000000001   3.958823464   0.000000000
   0.000000000   0.000000000  22.078000000

ATOMIC_POSITIONS (crystal)
Ba      -0.000000003  -0.000000001   0.235540256
O        0.499999996   0.499999996   0.233172632
Ti       0.500000002   0.500000001   0.319248891
O        0.499999999  -0.000000002   0.320130282
O       -0.000000003   0.499999999   0.320130284
Ba      -0.000000000   0.000000005   0.412780587
O        0.500000000   0.499999997   0.412044165
Ti       0.500000002   0.500000027   0.502068079
O        0.499999998  -0.000000016   0.502075718
O       -0.000000001   0.499999993   0.502075720
Ba      -0.000000000   0.000000005   0.591413778
O        0.500000003   0.499999997   0.592123863
Ti       0.499999997   0.500000001   0.685044981
O        0.500000005  -0.000000001   0.684170358
O        0.000000005   0.500000000   0.684170356
Ba      -0.000000001   0.000000002   0.768782542
O        0.500000002   0.499999997   0.771152790
End final coordinates

     Writing output data file BaTiO3_7_Ba-O_P4mm.save/

     A final scf calculation at the relaxed structure.
     The G-vectors are recalculated for the final unit cell
     Results may differ from those at the preceding step.

     bravais-lattice index     =            0
     lattice parameter (alat)  =       7.5324  a.u.
     unit-cell volume          =    2335.0093 (a.u.)^3
     number of atoms/cell      =           17
     number of atomic types    =            3
     number of electrons       =       136.00
     number of Kohn-Sham states=           82
     kinetic-energy cutoff     =      80.0000  Ry
     charge density cutoff     =     400.0000  Ry
     convergence threshold     =      1.0E-11
     mixing beta               =       0.3000
     number of iterations used =            8  plain     mixing
     Exchange-correlation      = PBESOL ( 1  4 10  8 0 0)

     celldm(1)=   7.532448  celldm(2)=   0.000000  celldm(3)=   0.000000
     celldm(4)=   0.000000  celldm(5)=   0.000000  celldm(6)=   0.000000

     crystal axes: (cart. coord. in units of alat)
               a(1) = (   0.993182   0.000000   0.000000 )
               a(2) = (   0.000000   0.993182   0.000000 )
               a(3) = (   0.000000   0.000000   5.538886 )

     reciprocal axes: (cart. coord. in units 2 pi/alat)
               b(1) = (  1.006865 -0.000000  0.000000 )
               b(2) = ( -0.000000  1.006865  0.000000 )
               b(3) = (  0.000000  0.000000  0.180542 )

     PseudoPot. # 1 for Ba read from file:
     ./pseudo/Ba.pbesol-nc-sr.upf
     MD5 check sum: 716a24e91cb490012dd496b6aa92d00e
     Pseudo is Norm-conserving + core correction, Zval = 10.0
     Generated using ONCVPSP code by D. R. Hamann
     Using radial grid of 1936 points,  6 beta functions with:
                l(1) =   0
                l(2) =   0
                l(3) =   1
                l(4) =   1
                l(5) =   2
                l(6) =   2

     PseudoPot. # 2 for Ti read from file:
     ./pseudo/Ti.pbesol-nc-sr.upf
     MD5 check sum: c7cef475492d2ee3d0561e3a3e59fcd4
     Pseudo is Norm-conserving + core correction, Zval = 12.0
     Generated using ONCVPSP code by D. R. Hamann
     Using radial grid of 1586 points,  6 beta functions with:
                l(1) =   0
                l(2) =   0
                l(3) =   1
                l(4) =   1
                l(5) =   2
                l(6) =   2

     PseudoPot. # 3 for O  read from file:
     ./pseudo/O.pbesol-nc-sr.upf
     MD5 check sum: f226cbcd508cec715ff87a8f75a1dfba
     Pseudo is Norm-conserving + core correction, Zval =  6.0
     Generated using ONCVPSP code by D. R. Hamann
     Using radial grid of  936 points,  5 beta functions with:
                l(1) =   0
                l(2) =   0
                l(3) =   1
                l(4) =   1
                l(5) =   2

     atomic species   valence    mass     pseudopotential
        Ba            10.00   137.32700     Ba( 1.00)
        Ti            12.00    47.86700     Ti( 1.00)
        O              6.00    15.99940     O ( 1.00)

     No symmetry found

   Cartesian axes

     site n.     atom                  positions (alat units)
         1           Ba  tau(   1) = (  -0.0000000  -0.0000000   1.3046306  )
         2           O   tau(   2) = (   0.4965910   0.4965910   1.2915166  )
         3           Ti  tau(   3) = (   0.4965910   0.4965910   1.7682832  )
         4           O   tau(   4) = (   0.4965910  -0.0000000   1.7731652  )
         5           O   tau(   5) = (  -0.0000000   0.4965910   1.7731652  )
         6           Ba  tau(   6) = (  -0.0000000   0.0000000   2.2863447  )
         7           O   tau(   7) = (   0.4965910   0.4965910   2.2822657  )
         8           Ti  tau(   8) = (   0.4965910   0.4965910   2.7808979  )
         9           O   tau(   9) = (   0.4965910  -0.0000000   2.7809402  )
        10           O   tau(  10) = (  -0.0000000   0.4965910   2.7809402  )
        11           Ba  tau(  11) = (  -0.0000000   0.0000000   3.2757736  )
        12           O   tau(  12) = (   0.4965910   0.4965910   3.2797066  )
        13           Ti  tau(  13) = (   0.4965910   0.4965910   3.7943861  )
        14           O   tau(  14) = (   0.4965910  -0.0000000   3.7895417  )
        15           O   tau(  15) = (   0.0000000   0.4965910   3.7895417  )
        16           Ba  tau(  16) = (  -0.0000000   0.0000000   4.2581989  )
        17           O   tau(  17) = (   0.4965910   0.4965910   4.2713275  )

     number of k points=    34  gaussian smearing, width (Ry)=  0.0050
                       cart. coord. in units 2pi/alat
        k(    1) = (   0.0000000   0.0000000   0.0000000), wk =   0.0312500
        k(    2) = (  -0.0000000   0.1258581   0.0000000), wk =   0.0625000
        k(    3) = (  -0.0000000   0.2517162   0.0000000), wk =   0.0625000
        k(    4) = (  -0.0000000   0.3775743   0.0000000), wk =   0.0625000
        k(    5) = (   0.0000000  -0.5034324   0.0000000), wk =   0.0312500
        k(    6) = (   0.1258581  -0.0000000   0.0000000), wk =   0.0625000
        k(    7) = (   0.1258581   0.1258581   0.0000000), wk =   0.0625000
        k(    8) = (   0.1258581   0.2517162   0.0000000), wk =   0.0625000
        k(    9) = (   0.1258581   0.3775743   0.0000000), wk =   0.0625000
        k(   10) = (   0.1258581  -0.5034324   0.0000000), wk =   0.0625000
        k(   11) = (   0.1258581  -0.3775743   0.0000000), wk =   0.0625000
        k(   12) = (   0.1258581  -0.2517162   0.0000000), wk =   0.0625000
        k(   13) = (   0.1258581  -0.1258581   0.0000000), wk =   0.0625000
        k(   14) = (   0.2517162  -0.0000000   0.0000000), wk =   0.0625000
        k(   15) = (   0.2517162   0.1258581   0.0000000), wk =   0.0625000
        k(   16) = (   0.2517162   0.2517162   0.0000000), wk =   0.0625000
        k(   17) = (   0.2517162   0.3775743   0.0000000), wk =   0.0625000
        k(   18) = (   0.2517162  -0.5034324   0.0000000), wk =   0.0625000
        k(   19) = (   0.2517162  -0.3775743   0.0000000), wk =   0.0625000
        k(   20) = (   0.2517162  -0.2517162   0.0000000), wk =   0.0625000
        k(   21) = (   0.2517162  -0.1258581   0.0000000), wk =   0.0625000
        k(   22) = (   0.3775743  -0.0000000   0.0000000), wk =   0.0625000
        k(   23) = (   0.3775743   0.1258581   0.0000000), wk =   0.0625000
        k(   24) = (   0.3775743   0.2517162   0.0000000), wk =   0.0625000
        k(   25) = (   0.3775743   0.3775743   0.0000000), wk =   0.0625000
        k(   26) = (   0.3775743  -0.5034324   0.0000000), wk =   0.0625000
        k(   27) = (   0.3775743  -0.3775743   0.0000000), wk =   0.0625000
        k(   28) = (   0.3775743  -0.2517162   0.0000000), wk =   0.0625000
        k(   29) = (   0.3775743  -0.1258581   0.0000000), wk =   0.0625000
        k(   30) = (  -0.5034324   0.0000000   0.0000000), wk =   0.0312500
        k(   31) = (  -0.5034324   0.1258581   0.0000000), wk =   0.0625000
        k(   32) = (  -0.5034324   0.2517162   0.0000000), wk =   0.0625000
        k(   33) = (  -0.5034324   0.3775743   0.0000000), wk =   0.0625000
        k(   34) = (  -0.5034324  -0.5034324   0.0000000), wk =   0.0312500

     Initial potential from superposition of free atoms

     starting charge  135.93448, renormalised to  136.00000

[...]

     Starting wfcs are   90 randomized atomic wfcs

     Self-consistent Calculation

[...]

     negative rho (up, down):  8.815E-08 0.000E+00

[...]

     iteration #  5     ecut=    80.00 Ry     beta= 0.30
     Davidson diagonalization with overlap
     c_bands:  1 eigenvalues not converged
     ethr =  3.44E-05,  avg # of iterations =  7.2

[...]

     total energy              =    -912.51050948 Ry
     Harris-Foulkes estimate   =    -912.51050948 Ry
     estimated scf accuracy    <          2.7E-11 Ry

     iteration # 18     ecut=    80.00 Ry     beta= 0.30
     Davidson diagonalization with overlap
     ethr =  1.00E-13,  avg # of iterations =  1.1

     Adding external electric field

     Computed dipole along edir(3) :
        Dipole                0.0008 Ry au,          0.0021 Debye
        Dipole field          0.0000 Ry au,

        Potential amp.       -0.0004 Ry
        Total length         41.1999 bohr

     End of self-consistent calculation

[...]

          k = 0.3776-0.1259 0.0000 ( 28246 PWs)   bands (ev):

[...]

          k =-0.5034-0.5034 0.0000 ( 28120 PWs)   bands (ev):

   -50.2853 -50.2789 -50.2003 -26.7568 -26.7568 -26.7509 -26.7509 -26.6445
   -26.6399 -26.6399 -26.6383 -26.5660 -19.7742 -19.7705 -18.5944 -18.5537
   -10.4056 -10.4056 -10.3961 -10.3961 -10.2740 -10.0529 -10.0472 -10.0472
    -9.7870  -9.6968  -5.4549  -5.4549  -5.4529  -5.4399  -5.4399  -5.4209
    -4.5793  -4.5793  -4.4617  -4.1866  -4.1866  -3.8512   1.1969   1.2192
     1.4685   1.7044   1.7081   1.8119   1.9522   2.3114   2.3880   2.9952
     2.9952   3.0931   3.1352   3.1352   3.1640   3.5000   3.5000   4.1708
     4.5545   5.1984   5.1984   5.2243   5.2243   5.4233   5.4233   5.4673
     5.4690   5.7465   5.7465   5.8412   9.7466   9.7466   9.8958   9.8958
     9.9581   9.9917  10.1640  10.1640  10.2595  10.9164  10.9164  11.0095
    11.0095  11.5290

     the Fermi energy is     6.8707 ev

!    total energy              =    -912.51050948 Ry
     Harris-Foulkes estimate   =    -912.51050948 Ry
     estimated scf accuracy    <          8.4E-12 Ry

     The total energy is the sum of the following terms:

     one-electron contribution =   -4654.23533591 Ry
     hartree contribution      =    2386.31415096 Ry
     xc contribution           =    -188.20756926 Ry
     ewald contribution        =    1543.61824473 Ry
     electric field correction =       0.00000000 Ry
     smearing contrib. (-TS)   =      -0.00000000 Ry

     convergence has been achieved in  18 iterations

     Forces acting on atoms (cartesian axes, Ry/au):

     atom    1 type  1   force =     0.00000000    0.00000000   -0.00016341
     atom    2 type  3   force =     0.00000000   -0.00000000   -0.00027281
     atom    3 type  2   force =    -0.00000000    0.00000000   -0.00009152
     atom    4 type  3   force =     0.00000000   -0.00000000   -0.00002639
     atom    5 type  3   force =     0.00000000    0.00000000   -0.00002640
     atom    6 type  1   force =     0.00000000    0.00000000    0.00010678
     atom    7 type  3   force =    -0.00000000    0.00000000    0.00047706
     atom    8 type  2   force =    -0.00000000    0.00000001    0.00034822
     atom    9 type  3   force =     0.00000000   -0.00000001    0.00003029
     atom   10 type  3   force =     0.00000001   -0.00000000    0.00003028
     atom   11 type  1   force =     0.00000000    0.00000000   -0.00005173
     atom   12 type  3   force =    -0.00000000   -0.00000000    0.00018842
     atom   13 type  2   force =    -0.00000000    0.00000000   -0.00009855
     atom   14 type  3   force =    -0.00000000   -0.00000000   -0.00010064
     atom   15 type  3   force =    -0.00000000    0.00000000   -0.00010063
     atom   16 type  1   force =    -0.00000000   -0.00000000   -0.00003806
     atom   17 type  3   force =    -0.00000000   -0.00000000   -0.00021093

     Total force =     0.000766     Total SCF correction =     0.000008

     Computing stress (Cartesian axis) and pressure

          total   stress  (Ry/bohr**3)                   (kbar)     P=   -0.30
  -0.00000017  -0.00000000  -0.00000000         -0.03     -0.00     -0.00
  -0.00000000  -0.00000017  -0.00000000         -0.00     -0.03     -0.00
  -0.00000000  -0.00000000  -0.00000582         -0.00     -0.00     -0.86

     Writing output data file BaTiO3_7_Ba-O_P4mm.save/

     General routines

     Parallel routines

   This run was terminated on:  14:19:15   4Jun2021

   JOB DONE.