     Program PWSCF v.6.4.1 starts on  2Jun2021 at 17:27:25

     K-points division:     npool     =       4
     R & G space division:  proc/nbgrp/npool/nimage =      40
     Waiting for input...
     Reading input from standard input

     Current dimensions of program PWSCF are:
     Max number of different atomic species (ntypx) = 10
     Max number of k-points (npk) =  40000
     Max angular momentum in pseudopotentials (lmaxx) =  3
     Presently no symmetry can be used with electric field

     bravais-lattice index     =            0
     lattice parameter (alat)  =       7.5324  a.u.
     unit-cell volume          =    2367.1780 (a.u.)^3
     number of atoms/cell      =           17
     number of atomic types    =            3
     number of electrons       =       136.00
     number of Kohn-Sham states=           82
     kinetic-energy cutoff     =      80.0000  Ry
     charge density cutoff     =     400.0000  Ry
     convergence threshold     =      1.0E-09
     mixing beta               =       0.3000
     number of iterations used =            8  plain     mixing
     Exchange-correlation      = PBESOL ( 1  4 10  8 0 0)
     nstep                     =           50

     celldm(1)=   7.532448  celldm(2)=   0.000000  celldm(3)=   0.000000
     celldm(4)=   0.000000  celldm(5)=   0.000000  celldm(6)=   0.000000

     crystal axes: (cart. coord. in units of alat)
               a(1) = (   1.000000   0.000000   0.000000 )
               a(2) = (   0.000000   1.000000   0.000000 )
               a(3) = (   0.000000   0.000000   5.538886 )

     reciprocal axes: (cart. coord. in units 2 pi/alat)
               b(1) = (  1.000000  0.000000  0.000000 )
               b(2) = (  0.000000  1.000000  0.000000 )
               b(3) = (  0.000000  0.000000  0.180542 )

     PseudoPot. # 1 for Ba read from file:
     ./pseudo/Ba.pbesol-nc-sr.upf
     MD5 check sum: 716a24e91cb490012dd496b6aa92d00e
     Pseudo is Norm-conserving + core correction, Zval = 10.0
     Generated using ONCVPSP code by D. R. Hamann
     Using radial grid of 1936 points,  6 beta functions with:
                l(1) =   0
                l(2) =   0
                l(3) =   1
                l(4) =   1
                l(5) =   2
                l(6) =   2

     PseudoPot. # 2 for Ti read from file:
     ./pseudo/Ti.pbesol-nc-sr.upf
     MD5 check sum: c7cef475492d2ee3d0561e3a3e59fcd4
     Pseudo is Norm-conserving + core correction, Zval = 12.0
     Generated using ONCVPSP code by D. R. Hamann
     Using radial grid of 1586 points,  6 beta functions with:
                l(1) =   0
                l(2) =   0
                l(3) =   1
                l(4) =   1
                l(5) =   2
                l(6) =   2

     PseudoPot. # 3 for O  read from file:
     ./pseudo/O.pbesol-nc-sr.upf
     MD5 check sum: f226cbcd508cec715ff87a8f75a1dfba
     Pseudo is Norm-conserving + core correction, Zval =  6.0
     Generated using ONCVPSP code by D. R. Hamann
     Using radial grid of  936 points,  5 beta functions with:
                l(1) =   0
                l(2) =   0
                l(3) =   1
                l(4) =   1
                l(5) =   2

     atomic species   valence    mass     pseudopotential
        Ba            10.00   137.32700     Ba( 1.00)
        Ti            12.00    47.86700     Ti( 1.00)
        O              6.00    15.99940     O ( 1.00)

      cell mass =  64.81286 AMU

     No symmetry found

   Cartesian axes

     site n.     atom                  positions (alat units)
         1           Ba  tau(   1) = (   0.0000000   0.0000000   1.2739438  )
         2           O   tau(   2) = (   0.5000000   0.5000000   1.2507130  )
         3           Ti  tau(   3) = (   0.5000000   0.5000000   1.7941119  )
         4           O   tau(   4) = (   0.5000000   0.0000000   1.7648209  )
         5           O   tau(   5) = (   0.0000000   0.5000000   1.7648209  )
         6           Ba  tau(   6) = (   0.0000000   0.0000000   2.2839789  )
         7           O   tau(   7) = (   0.5000000   0.5000000   2.2607481  )
         8           Ti  tau(   8) = (   0.5000000   0.5000000   2.8041470  )
         9           O   tau(   9) = (   0.5000000   0.0000000   2.7748560  )
        10           O   tau(  10) = (   0.0000000   0.5000000   2.7748560  )
        11           Ba  tau(  11) = (   0.0000000   0.0000000   3.2940140  )
        12           O   tau(  12) = (   0.5000000   0.5000000   3.2707832  )
        13           Ti  tau(  13) = (   0.5000000   0.5000000   3.8141821  )
        14           O   tau(  14) = (   0.5000000   0.0000000   3.7848911  )
        15           O   tau(  15) = (   0.0000000   0.5000000   3.7848911  )
        16           Ba  tau(  16) = (   0.0000000   0.0000000   4.3040492  )
        17           O   tau(  17) = (   0.5000000   0.5000000   4.2808184  )

     number of k points=    34  gaussian smearing, width (Ry)=  0.0010
                       cart. coord. in units 2pi/alat
        k(    1) = (   0.0000000   0.0000000   0.0000000), wk =   0.0312500
        k(    2) = (   0.0000000   0.1250000   0.0000000), wk =   0.0625000
        k(    3) = (   0.0000000   0.2500000   0.0000000), wk =   0.0625000
        k(    4) = (   0.0000000   0.3750000   0.0000000), wk =   0.0625000
        k(    5) = (   0.0000000  -0.5000000   0.0000000), wk =   0.0312500
        k(    6) = (   0.1250000   0.0000000   0.0000000), wk =   0.0625000
        k(    7) = (   0.1250000   0.1250000   0.0000000), wk =   0.0625000
        k(    8) = (   0.1250000   0.2500000   0.0000000), wk =   0.0625000
        k(    9) = (   0.1250000   0.3750000   0.0000000), wk =   0.0625000
        k(   10) = (   0.1250000  -0.5000000   0.0000000), wk =   0.0625000
        k(   11) = (   0.1250000  -0.3750000   0.0000000), wk =   0.0625000
        k(   12) = (   0.1250000  -0.2500000   0.0000000), wk =   0.0625000
        k(   13) = (   0.1250000  -0.1250000   0.0000000), wk =   0.0625000
        k(   14) = (   0.2500000   0.0000000   0.0000000), wk =   0.0625000
        k(   15) = (   0.2500000   0.1250000   0.0000000), wk =   0.0625000
        k(   16) = (   0.2500000   0.2500000   0.0000000), wk =   0.0625000
        k(   17) = (   0.2500000   0.3750000   0.0000000), wk =   0.0625000
        k(   18) = (   0.2500000  -0.5000000   0.0000000), wk =   0.0625000
        k(   19) = (   0.2500000  -0.3750000   0.0000000), wk =   0.0625000
        k(   20) = (   0.2500000  -0.2500000   0.0000000), wk =   0.0625000
        k(   21) = (   0.2500000  -0.1250000   0.0000000), wk =   0.0625000
        k(   22) = (   0.3750000   0.0000000   0.0000000), wk =   0.0625000
        k(   23) = (   0.3750000   0.1250000   0.0000000), wk =   0.0625000
        k(   24) = (   0.3750000   0.2500000   0.0000000), wk =   0.0625000
        k(   25) = (   0.3750000   0.3750000   0.0000000), wk =   0.0625000
        k(   26) = (   0.3750000  -0.5000000   0.0000000), wk =   0.0625000
        k(   27) = (   0.3750000  -0.3750000   0.0000000), wk =   0.0625000
        k(   28) = (   0.3750000  -0.2500000   0.0000000), wk =   0.0625000
        k(   29) = (   0.3750000  -0.1250000   0.0000000), wk =   0.0625000
        k(   30) = (  -0.5000000   0.0000000   0.0000000), wk =   0.0312500
        k(   31) = (  -0.5000000   0.1250000   0.0000000), wk =   0.0625000
        k(   32) = (  -0.5000000   0.2500000   0.0000000), wk =   0.0625000
        k(   33) = (  -0.5000000   0.3750000   0.0000000), wk =   0.0625000
        k(   34) = (  -0.5000000  -0.5000000   0.0000000), wk =   0.0312500

     Initial potential from superposition of free atoms

     starting charge  135.93448, renormalised to  136.00000

     negative rho (up, down):  4.559E-06 0.000E+00

     Adding external electric field

     Computed dipole along edir(3) :
        Dipole                0.0211 Ry au,          0.0537 Debye
        Dipole field          0.0001 Ry au,

        Potential amp.       -0.0092 Ry
        Total length         41.1999 bohr

     Starting wfcs are   90 randomized atomic wfcs

     Self-consistent Calculation

     iteration #  1     ecut=    80.00 Ry     beta= 0.30
     Davidson diagonalization with overlap
     ethr =  1.00E-02,  avg # of iterations =  2.9

[...]

     total energy              =    -911.21898827 Ry
     Harris-Foulkes estimate   =    -914.08520086 Ry
     estimated scf accuracy    <       6.40668132 Ry

[...]

     End of self-consistent calculation

          k = 0.0000 0.0000 0.0000 ( 28531 PWs)   bands (ev):

   -51.6622 -50.7799 -49.7359 -28.0906 -28.0245 -28.0245 -27.2103 -27.1266
   -27.1266 -26.1238 -26.1079 -26.1079 -21.9154 -19.7683 -18.8617 -18.7567
   -12.5345 -11.7074 -11.6002 -11.4089 -10.9442 -10.5837 -10.5289  -9.9568
    -9.6995  -8.1909  -7.0548  -6.8498  -6.8498  -4.9047  -4.9047  -4.7903
    -4.1007  -3.9090  -3.9090  -3.7589  -3.7589  -3.7236   1.3447   1.7936
     1.7936   2.1206   2.6605   2.6615   2.6615   2.7794   2.8872   2.8872
     3.1924   3.2799   3.2799   3.7993   3.7993   3.8612   3.9522   3.9522
     4.2833   4.3139   4.3139   4.5628   4.7686   5.0468   5.0468   5.5657
     5.5657   6.1559   6.3664   6.5282   6.5872   6.5872   7.2303   7.2303
     7.3415   7.9933   8.3201   8.3435   8.3435   8.6856   9.2272   9.2943
     9.5223   9.5223

[...]

          k =-0.5000 0.0000 0.0000 ( 28646 PWs)   bands (ev):

[...]

     the Fermi energy is     6.6596 ev

!    total energy              =    -912.44815925 Ry
     Harris-Foulkes estimate   =    -912.44815966 Ry
     estimated scf accuracy    <          8.7E-10 Ry

     convergence has been achieved in  32 iterations

     Forces acting on atoms (cartesian axes, Ry/au):

     atom    1 type  1   force =     0.00000007   -0.00000000    0.00716059
     atom    2 type  3   force =    -0.00000046   -0.00000012    0.03804861
     atom    3 type  2   force =     0.00000007   -0.00000005   -0.09773331
     atom    4 type  3   force =     0.00000009   -0.00000007    0.01520170
     atom    5 type  3   force =     0.00000037    0.00000023    0.01520130
     atom    6 type  1   force =     0.00000006    0.00000006   -0.02132160
     atom    7 type  3   force =    -0.00000006   -0.00000001    0.05459439
     atom    8 type  2   force =    -0.00000003    0.00000012   -0.06012900
     atom    9 type  3   force =     0.00000011    0.00000006    0.01982792
     atom   10 type  3   force =     0.00000024    0.00000003    0.01982655
     atom   11 type  1   force =     0.00000012    0.00000016   -0.02940797
     atom   12 type  3   force =    -0.00000121   -0.00000026    0.04202396
     atom   13 type  2   force =     0.00000023   -0.00000002   -0.03750642
     atom   14 type  3   force =     0.00000021   -0.00000023    0.02931880
     atom   15 type  3   force =     0.00000012    0.00000008    0.02931923
     atom   16 type  1   force =     0.00000005    0.00000007   -0.03993005
     atom   17 type  3   force =     0.00000002   -0.00000003    0.01550530

     Total force =     0.164138     Total SCF correction =     0.000113

     Computing stress (Cartesian axis) and pressure

          total   stress  (Ry/bohr**3)                   (kbar)     P=  -27.54
  -0.00022442  -0.00000000   0.00000000        -33.01     -0.00      0.00
  -0.00000000  -0.00022442  -0.00000000         -0.00    -33.01     -0.00
   0.00000000  -0.00000000  -0.00011281          0.00     -0.00    -16.59

     Parrinello-Rahman Damped Cell Dynamics Minimization:
     convergence thresholds EPSE = 1.00E-04  EPSF = 1.00E-03

     Entering Dynamics;  it =     1   time =  0.00000 pico-seconds

  new lattice vectors (alat unit) :
   0.999957733  -0.000000000   0.000000000
  -0.000000000   0.999957733   0.000000000
   0.000000000   0.000000000   5.538886101
  new unit-cell volume =   2366.9779 (a.u.)^3
  new positions in cryst coord
Ba       0.000000000  -0.000000000   0.230000366
O        0.499999999   0.500000000   0.225822547
Ti       0.500000000   0.500000000   0.323897721
O        0.500000000  -0.000000000   0.318630451
O        0.000000001   0.500000001   0.318630451
Ba       0.000000000   0.000000000   0.412352385
O        0.500000000   0.500000000   0.408183273
Ti       0.500000000   0.500000000   0.506256704
O        0.500000000   0.000000000   0.500985953
O        0.000000001   0.500000000   0.500985952
Ba       0.000000000   0.000000000   0.594705446
O        0.499999997   0.499999999   0.590531238
Ti       0.500000000   0.500000000   0.688613492
O        0.500000000  -0.000000001   0.683343587
O        0.000000000   0.500000000   0.683343587
Ba       0.000000000   0.000000000   0.777058383
O        0.500000000   0.500000000   0.772873088
  new positions in cart coord (alat unit)
Ba       0.000000000  -0.000000000   1.273945829
O        0.499978865   0.499978866   1.250805367
Ti       0.499978866   0.499978866   1.794032585
O        0.499978867  -0.000000000   1.764857779
O        0.000000001   0.499978867   1.764857778
Ba       0.000000000   0.000000000   2.283972895
O        0.499978866   0.499978866   2.260880658
Ti       0.499978866   0.499978866   2.804098222
O        0.499978867   0.000000000   2.774904132
O        0.000000001   0.499978866   2.774904129
Ba       0.000000000   0.000000000   3.294005731
O        0.499978863   0.499978866   3.270885264
Ti       0.499978867   0.499978866   3.814151702
O        0.499978867  -0.000000001   3.784962297
O        0.000000000   0.499978867   3.784962298
Ba       0.000000000   0.000000000   4.304037878
O        0.499978866   0.499978866   4.280856007

     Ekin =     0.00000000 Ry    T =    0.0 K  Etot =  -912.44815925
     new unit-cell volume =   2366.97794 a.u.^3 (   350.74994 Ang^3 )
     density =      4.03786 g/cm^3

CELL_PARAMETERS (angstrom)
   3.985831523  -0.000000000   0.000000000
  -0.000000000   3.985831523   0.000000000
   0.000000000   0.000000000  22.078000000

ATOMIC_POSITIONS (crystal)
Ba       0.000000000  -0.000000000   0.230000366
O        0.499999999   0.500000000   0.225822547
Ti       0.500000000   0.500000000   0.323897721
O        0.500000000  -0.000000000   0.318630451
O        0.000000001   0.500000001   0.318630451
Ba       0.000000000   0.000000000   0.412352385
O        0.500000000   0.500000000   0.408183273
Ti       0.500000000   0.500000000   0.506256704
O        0.500000000   0.000000000   0.500985953
O        0.000000001   0.500000000   0.500985952
Ba       0.000000000   0.000000000   0.594705446
O        0.499999997   0.499999999   0.590531238
Ti       0.500000000   0.500000000   0.688613492
O        0.500000000  -0.000000001   0.683343587
O        0.000000000   0.500000000   0.683343587
Ba       0.000000000   0.000000000   0.777058383
O        0.500000000   0.500000000   0.772873088

     Writing output data file BaTiO3_7_Ba-O_P4mm.save/
     NEW-OLD atomic charge density approx. for the potential

[...]

     extrapolated charge  135.98851, renormalised to  136.00000

[...]

     iteration #  1     ecut=    80.00 Ry     beta= 0.30
     Davidson diagonalization with overlap
     c_bands:  2 eigenvalues not converged
     c_bands:  2 eigenvalues not converged
     ethr =  1.00E-06,  avg # of iterations = 10.0

[...]

     iteration #  9     ecut=    80.00 Ry     beta= 0.30
     Davidson diagonalization with overlap
     c_bands:  1 eigenvalues not converged
     ethr =  4.09E-06,  avg # of iterations =  3.3

[...]

     negative rho (up, down):  8.789E-04 0.000E+00

[...]

     Threshold (ethr) on eigenvalues was too large:
     Diagonalizing with lowered threshold

     Davidson diagonalization with overlap
     ethr =  6.27E-09,  avg # of iterations =  3.5

[...]

     Threshold (ethr) on eigenvalues was too large:
     Diagonalizing with lowered threshold

     Davidson diagonalization with overlap
     ethr =  9.87E-08,  avg # of iterations =  1.3

[...]

     Self-consistent Calculation

[...]

     total energy              =    -912.50795934 Ry
     Harris-Foulkes estimate   =    -912.50795934 Ry
     estimated scf accuracy    <          1.8E-09 Ry

     iteration # 11     ecut=    80.00 Ry     beta= 0.30
     Davidson diagonalization with overlap
     ethr =  1.33E-12,  avg # of iterations =  2.4

[...]

     End of self-consistent calculation

[...]

          k = 0.3793-0.1264 0.0000 ( 28621 PWs)   bands (ev):

[...]

          k =-0.5057-0.5057 0.0000 ( 28672 PWs)   bands (ev):

   -50.1814 -50.1371 -50.0732 -26.6561 -26.6561 -26.6078 -26.6078 -26.5333
   -26.5141 -26.5141 -26.4867 -26.4315 -19.6979 -19.6919 -18.4505 -18.4136
   -10.2665 -10.2665 -10.1850 -10.1850 -10.0829  -9.8876  -9.8786  -9.8786
    -9.6543  -9.5530  -5.3998  -5.3998  -5.3831  -5.3831  -5.3316  -5.2933
    -4.4665  -4.4665  -4.2931  -4.1005  -4.1005  -3.7372   1.3036   1.3798
     1.5999   1.7673   1.8329   1.8738   2.0458   2.3516   2.6009   3.0768
     3.0768   3.1261   3.2354   3.2354   3.3297   3.6382   3.6382   4.2895
     4.6573   5.3682   5.3682   5.4442   5.4442   5.6069   5.6069   5.6403
     5.7300   5.9003   5.9003   6.0518   9.9009   9.9009  10.0387  10.0387
    10.1353  10.1968  10.2880  10.2880  10.4479  10.8983  10.8983  10.9991
    10.9991  11.5155

     the Fermi energy is     6.7797 ev

!    total energy              =    -912.50795934 Ry
     Harris-Foulkes estimate   =    -912.50795934 Ry
     estimated scf accuracy    <          1.4E-10 Ry

     convergence has been achieved in  11 iterations

     Forces acting on atoms (cartesian axes, Ry/au):

     atom    1 type  1   force =    -0.00000000    0.00000000    0.01699093
     atom    2 type  3   force =     0.00000000    0.00000000    0.00102879
     atom    3 type  2   force =     0.00000000   -0.00000000   -0.00817106
     atom    4 type  3   force =    -0.00000000    0.00000000   -0.00039720
     atom    5 type  3   force =    -0.00000000    0.00000000   -0.00039717
     atom    6 type  1   force =    -0.00000000    0.00000000    0.00353592
     atom    7 type  3   force =    -0.00000000   -0.00000000   -0.00018104
     atom    8 type  2   force =     0.00000001   -0.00000001   -0.00130489
     atom    9 type  3   force =     0.00000001    0.00000000   -0.00029358
     atom   10 type  3   force =     0.00000000   -0.00000000   -0.00029357
     atom   11 type  1   force =    -0.00000000    0.00000000   -0.00305930
     atom   12 type  3   force =    -0.00000001   -0.00000001    0.00009219
     atom   13 type  2   force =     0.00000000   -0.00000000    0.00099990
     atom   14 type  3   force =     0.00000000    0.00000000    0.00083045
     atom   15 type  3   force =    -0.00000000    0.00000001    0.00083044
     atom   16 type  1   force =     0.00000000    0.00000000   -0.00831628
     atom   17 type  3   force =    -0.00000000   -0.00000000   -0.00189454

     Total force =     0.021348     Total SCF correction =     0.000043

     Computing stress (Cartesian axis) and pressure

          total   stress  (Ry/bohr**3)                   (kbar)     P=   -4.27
   0.00001360   0.00000000  -0.00000000          2.00      0.00     -0.00
   0.00000000   0.00001360  -0.00000000          0.00      2.00     -0.00
  -0.00000000  -0.00000000  -0.00011430         -0.00     -0.00    -16.81

     Entering Dynamics;  it =    50   time =  0.04743 pico-seconds

  new lattice vectors (alat unit) :
   0.988826481  -0.000000000   0.000000000
  -0.000000000   0.988826481   0.000000000
   0.000000000   0.000000000   5.538886101
  new unit-cell volume =   2314.5742 (a.u.)^3
  new positions in cryst coord
Ba      -0.000000000  -0.000000000   0.231640920
O        0.499999998   0.499999996   0.231503650
Ti       0.499999998   0.500000001   0.318879268
O        0.500000001   0.000000001   0.319194699
O        0.000000002   0.500000000   0.319194692
Ba      -0.000000000   0.000000001   0.412462404
O        0.500000003   0.500000011   0.412368200
Ti       0.500000001   0.499999995   0.503693547
O        0.499999983   0.000000024   0.503631827
O       -0.000000010   0.500000020   0.503631823
Ba       0.000000001   0.000000004   0.594257953
O        0.500000007   0.500000015   0.594668915
Ti       0.499999998   0.500000002   0.688398545
O        0.500000001   0.000000006   0.687686449
O        0.000000008   0.499999997   0.687686449
Ba       0.000000001   0.000000001   0.773903351
O        0.500000011   0.500000015   0.775272817
  new positions in cart coord (alat unit)
Ba      -0.000000000  -0.000000000   1.283032674
O        0.494413239   0.494413237   1.282272352
Ti       0.494413239   0.494413242   1.766235947
O        0.494413242   0.000000001   1.767983081
O        0.000000002   0.494413241   1.767983042
Ba      -0.000000000   0.000000001   2.284582277
O        0.494413244   0.494413252   2.284060489
Ti       0.494413241   0.494413236   2.789901184
O        0.494413223   0.000000024   2.789559328
O       -0.000000010   0.494413261   2.789559307
Ba       0.000000001   0.000000004   3.291527118
O        0.494413248   0.494413256   3.293803388
Ti       0.494413238   0.494413243   3.812961135
O        0.494413242   0.000000006   3.809016912
O        0.000000008   0.494413238   3.809016917
Ba       0.000000001   0.000000001   4.286562515
O        0.494413251   0.494413256   4.294147832

     Ekin =     0.00446898 Ry    T =   78.6 K  Etot =  -912.50349036
     new unit-cell volume =   2314.57417 a.u.^3 (   342.98450 Ang^3 )
     density =      4.12928 g/cm^3

CELL_PARAMETERS (angstrom)
   3.941462353  -0.000000000   0.000000000
  -0.000000000   3.941462355   0.000000000
   0.000000000   0.000000000  22.078000000

ATOMIC_POSITIONS (crystal)
Ba      -0.000000000  -0.000000000   0.231640920
O        0.499999998   0.499999996   0.231503650
Ti       0.499999998   0.500000001   0.318879268
O        0.500000001   0.000000001   0.319194699
O        0.000000002   0.500000000   0.319194692
Ba      -0.000000000   0.000000001   0.412462404
O        0.500000003   0.500000011   0.412368200
Ti       0.500000001   0.499999995   0.503693547
O        0.499999983   0.000000024   0.503631827
O       -0.000000010   0.500000020   0.503631823
Ba       0.000000001   0.000000004   0.594257953
O        0.500000007   0.500000015   0.594668915
Ti       0.499999998   0.500000002   0.688398545
O        0.500000001   0.000000006   0.687686449
O        0.000000008   0.499999997   0.687686449
Ba       0.000000001   0.000000001   0.773903351
O        0.500000011   0.500000015   0.775272817

     Maximum number of iterations reached, stopping

     Writing output data file BaTiO3_7_Ba-O_P4mm.save/
     NEW-OLD atomic charge density approx. for the potential

     Adding external electric field

     Computed dipole along edir(3) :
        Dipole               -0.0143 Ry au,         -0.0364 Debye
        Dipole field         -0.0001 Ry au,

        Potential amp.        0.0064 Ry
        Total length         41.1999 bohr

     extrapolated charge  136.01884, renormalised to  136.00000

     Writing output data file BaTiO3_7_Ba-O_P4mm.save/

     General routines

     Parallel routines

   This run was terminated on:  18: 5:25   2Jun2021

   JOB DONE.